SCANNUMBER: 1166
IONMODE: positive
SPECTRUMTYPE: Centroid
FORMULA: C7H8ClN3O4S2
INCHIKEY: JZUFKLXOESDKRF-UHFFFAOYSA-N
SMILES: NS(=O)(=O)C1=CC2=C(NCNS2(=O)=O)C=C1Cl
AUTHORS: Biomarker Analytical Laboratories, RECETOX, Masaryk University (CZ)
INSTRUMENT: LC Orbitrap Fusion Tribrid MS
IONIZATION: ESI+
LICENSE: CC BY-NC
COMPOUND_NAME: Hydrochlorothiazide
RETENTION_TIME: 1.657244
PRECURSOR_MZ: 297.9721
ADDUCT: [M+H]+
INSTRUMENT_TYPE: LC-ESI-Orbitrap
NUM PEAKS: 2
220.97833   11703.0     "Theoretical m/z 220.978766, Mass diff 0 (0 ppm), Formula C6H6ClN2O3S"
232.97813   9081.0      "Theoretical m/z 232.978766, Mass diff 0 (0 ppm), Formula C7H6ClN2O3S"

SCANNUMBER: 727
IONMODE: positive
SPECTRUMTYPE: Centroid
FORMULA: C9H11NO4
INCHIKEY: WTDRDQBEARUVNC-LURJTMIESA-N
SMILES: N[C@@H](CC1=CC=C(O)C(O)=C1)C(O)=O
AUTHORS: Biomarker Analytical Laboratories, RECETOX, Masaryk University (CZ)
INSTRUMENT: LC Orbitrap Fusion Tribrid MS
IONIZATION: ESI+
LICENSE: CC BY-NC
COMPOUND_NAME: Levodopa_1
RETENTION_TIME: 0.7128666
PRECURSOR_MZ: 198.0762
ADDUCT: [M+H]+
INSTRUMENT_TYPE: LC-ESI-Orbitrap
NUM PEAKS: 2
107.04907   537691.0
135.04385   178345.0

SCANNUMBER: 1076
IONMODE: positive
SPECTRUMTYPE: Centroid
FORMULA: C9H11NO4
INCHIKEY: WTDRDQBEARUVNC-LURJTMIESA-N
SMILES: N[C@@H](CC1=CC=C(O)C(O)=C1)C(O)=O
AUTHORS: Biomarker Analytical Laboratories, RECETOX, Masaryk University (CZ)
INSTRUMENT: LC Orbitrap Fusion Tribrid MS
IONIZATION: ESI+
LICENSE: CC BY-NC
COMPOUND_NAME: Levodopa_2
RETENTION_TIME: 1.048427
PRECURSOR_MZ: 198.0762
ADDUCT: [M+H]+
INSTRUMENT_TYPE: LC-ESI-Orbitrap
NUM PEAKS: 2
134.05994   268309.0    "Theoretical m/z 134.060037, Mass diff 0 (0.72 ppm), SMILES OC1=CC=CC(=C1)CCN, Annotation [C8H11NO-3H]+, Rule of HR True"
135.04385   343216.0

SCANNUMBER: 1192
IONMODE: positive
SPECTRUMTYPE: Centroid
FORMULA: C12H11N7
INCHIKEY: FNYLWPVRPXGIIP-UHFFFAOYSA-N
SMILES: NC1=NC(N)=C2N=C(C(N)=NC2=N1)C1=CC=CC=C1
AUTHORS: Biomarker Analytical Laboratories, RECETOX, Masaryk University (CZ)
INSTRUMENT: LC Orbitrap Fusion Tribrid MS
IONIZATION: ESI+
LICENSE: CC BY-NC
COMPOUND_NAME: Triamterene
RETENTION_TIME: 2.533905
PRECURSOR_MZ: 254.115
ADDUCT: [M+H]+
INSTRUMENT_TYPE: LC-ESI-Orbitrap
NUM PEAKS: 2
237.0887    19002528.0  "Theoretical m/z 237.088321, Mass diff 0 (1.6 ppm), SMILES N1=CN=C(N)C2=NC(=C(N=C12)N)C3=CC=CC=C3, Annotation [C12H10N6-H]+, Rule of HR True"
254.11499   8105778.0   "Theoretical m/z 254.114866, Mass diff 0 (0.49 ppm), SMILES N1=C(N=C(N)C2=NC(=C(N=C12)N)C3=CC=CC=C3)N, Annotation [C12H11N7+H]+, Rule of HR True"

SCANNUMBER: 1575
IONMODE: positive
SPECTRUMTYPE: Centroid
FORMULA: C14H14O3
INCHIKEY: CMWTZPSULFXXJA-SECBINFHSA-N
SMILES: COC1=CC2=CC=C(C=C2C=C1)[C@@H](C)C(O)=O
AUTHORS: Biomarker Analytical Laboratories, RECETOX, Masaryk University (CZ)
INSTRUMENT: LC Orbitrap Fusion Tribrid MS
IONIZATION: ESI+
LICENSE: CC BY-NC
COMPOUND_NAME: Naproxen
RETENTION_TIME: 6.590834
PRECURSOR_MZ: 231.1017
ADDUCT: [M+H]+
INSTRUMENT_TYPE: LC-ESI-Orbitrap
NUM PEAKS: 2
170.07236   1450568.0
185.09567   469414.0

SCANNUMBER: 715
IONMODE: positive
SPECTRUMTYPE: Centroid
FORMULA: C18H26ClN3O
INCHIKEY: XXSMGPRMXLTPCZ-AWEZNQCLSA-N
SMILES: CCN(CCO)CCC[C@H](C)NC1=C2C=CC(Cl)=CC2=NC=C1
AUTHORS: Biomarker Analytical Laboratories, RECETOX, Masaryk University (CZ)
INSTRUMENT: LC Orbitrap Fusion Tribrid MS
IONIZATION: ESI+
LICENSE: CC BY-NC
COMPOUND_NAME: Hydroxychloroquine_1
RETENTION_TIME: 0.7305885
PRECURSOR_MZ: 336.184
ADDUCT: [M+H]+
INSTRUMENT_TYPE: LC-ESI-Orbitrap
NUM PEAKS: 2
191.03661   374324.0
247.09979   1130644.0   "Theoretical m/z 247.099659, Mass diff 0 (0.53 ppm), SMILES ClC=1C=CC=2C(=NC=CC2NC(C)CCC)C1, Annotation [C14H17ClN2-H]+, Rule of HR True"

SCANNUMBER: 1055
IONMODE: positive
SPECTRUMTYPE: Centroid
FORMULA: C10H14N2O4
INCHIKEY: TZFNLOMSOLWIDK-JTQLQIEISA-N
SMILES: C[C@@](CC1=CC=C(O)C(O)=C1)(NN)C(O)=O
AUTHORS: Biomarker Analytical Laboratories, RECETOX, Masaryk University (CZ)
INSTRUMENT: LC Orbitrap Fusion Tribrid MS
IONIZATION: ESI+
LICENSE: CC BY-NC
COMPOUND_NAME: Carbidopa_2
RETENTION_TIME: 1.111739
PRECURSOR_MZ: 227.1028
ADDUCT: [M+H]+
INSTRUMENT_TYPE: LC-ESI-Orbitrap
NUM PEAKS: 2
123.04403   2045870.0   "Theoretical m/z 123.044056, Mass diff 0 (0.21 ppm), SMILES OC1=CC=C(C=C1O)C, Annotation [C7H8O2-H]+, Rule of HR True"
146.05997   930734.0    "Theoretical m/z 146.060042, Mass diff 0 (0.5 ppm), SMILES OC1=CC=CC(=C1)CC(N)C, Annotation [C9H13NO-5H]+, Rule of HR True"

SCANNUMBER: 1090
IONMODE: positive
SPECTRUMTYPE: Centroid
FORMULA: C19H19N7O6
INCHIKEY: OVBPIULPVIDEAO-LBPRGKRZSA-N
SMILES: NC1=NC(=O)C2=C(N1)N=CC(CNC1=CC=C(C=C1)C(=O)N[C@@H](CCC(O)=O)C(O)=O)=N2
AUTHORS: Biomarker Analytical Laboratories, RECETOX, Masaryk University (CZ)
INSTRUMENT: LC Orbitrap Fusion Tribrid MS
IONIZATION: ESI+
LICENSE: CC BY-NC
COMPOUND_NAME: Folic acid
RETENTION_TIME: 3.005769
PRECURSOR_MZ: 442.1473
ADDUCT: [M+H]+
INSTRUMENT_TYPE: LC-ESI-Orbitrap
NUM PEAKS: 2
295.09335   2026215.0   "Theoretical m/z 295.093799, Mass diff 0 (1.52 ppm), SMILES O=CC1=CC=C(C=C1)NCC=2N=C3C(=O)N=C(N)NC3=NC2, Annotation [C14H12N6O2-H]+, Rule of HR True"
313.10416   106081.0    "Theoretical m/z 313.105694, Mass diff 0.002 (4.9 ppm), SMILES O=CC(N=CCNC1=CC=C(C=C1)C(=O)NC(C(=O)O)CC)=C, Annotation [C16H19N3O4-4H]+, Rule of HR False"

SCANNUMBER: 1056
IONMODE: positive
SPECTRUMTYPE: Centroid
FORMULA: C17H21NO
INCHIKEY: VHGCDTVCOLNTBX-KRWDZBQOSA-N
SMILES: CNCC[C@H](OC1=CC=CC=C1C)C1=CC=CC=C1
AUTHORS: Biomarker Analytical Laboratories, RECETOX, Masaryk University (CZ)
INSTRUMENT: LC Orbitrap Fusion Tribrid MS
IONIZATION: ESI+
LICENSE: CC BY-NC
COMPOUND_NAME: Tomoxetine
RETENTION_TIME: 3.837629
PRECURSOR_MZ: 256.1696
ADDUCT: [M+H]+
INSTRUMENT_TYPE: LC-ESI-Orbitrap
NUM PEAKS: 2
256.16953   880039.0    "Theoretical m/z 256.169584, Mass diff 0 (0.21 ppm), SMILES O(C=1C=CC=CC1C)C(C=2C=CC=CC2)CCNC, Annotation [C17H21NO+H]+, Rule of HR True"
256.26309   14983.0

SCANNUMBER: 1064
IONMODE: positive
SPECTRUMTYPE: Centroid
FORMULA: C8H14N2O2
INCHIKEY: HPHUVLMMVZITSG-LURJTMIESA-N
SMILES: CCC(N1CCCC1=O)C(=N)O
AUTHORS: Biomarker Analytical Laboratories, RECETOX, Masaryk University (CZ)
INSTRUMENT: LC Orbitrap Fusion Tribrid MS
IONIZATION: ESI+
LICENSE: CC BY-NC
COMMENT: low MS2 spectra quality
COMPOUND_NAME: Levetiracetam
RETENTION_TIME: 1.391959
PRECURSOR_MZ: 171.1127
ADDUCT: [M+H]+
INSTRUMENT_TYPE: LC-ESI-Orbitrap
NUM PEAKS: 2
98.09631    37218.0     "Theoretical m/z 98.096422, Mass diff 0 (1.14 ppm), SMILES N(CCC)CCC, Annotation [C6H15N-3H]+, Rule of HR True"
126.09106   260383.0    "Theoretical m/z 126.091343, Mass diff 0 (2.24 ppm), SMILES O=C1N(CCC)CCC1, Annotation [C7H13NO-H]+, Rule of HR True"

SCANNUMBER: 2177
IONMODE: positive
SPECTRUMTYPE: Centroid
FORMULA: C22H23ClN2O2
INCHIKEY: JCCNYMKQOSZNPW-UHFFFAOYSA-N
SMILES: CCOC(=O)N1CCC(CC1)=C1C2=C(CCC3=C1N=CC=C3)C=C(Cl)C=C2
AUTHORS: Biomarker Analytical Laboratories, RECETOX, Masaryk University (CZ)
INSTRUMENT: LC Orbitrap Fusion Tribrid MS
IONIZATION: ESI+
LICENSE: CC BY-NC
COMPOUND_NAME: Loratadine
RETENTION_TIME: 6.992672
PRECURSOR_MZ: 383.1527
ADDUCT: [M+H]+
INSTRUMENT_TYPE: LC-ESI-Orbitrap
NUM PEAKS: 2
267.08072   25172082.0  "Theoretical m/z 267.080939, Mass diff 0 (0.82 ppm), SMILES ClC1=CC=C2C(=CCC)C3=NC=CC=C3CCC2=C1, Annotation [C17H16ClN-2H]+, Rule of HR False"
337.10974   10984031.0  "Theoretical m/z 337.110218, Mass diff 0 (1.42 ppm), SMILES O=CN1CCC(=C2C=3N=CC=CC3CCC=4C=C(Cl)C=CC42)CC1, Annotation [C20H19ClN2O-H]+, Rule of HR True"

