NAME: 2,4-Dichlorophenoxyacetic acid ou 2,4-D (M-H)
msLevel: MS1
PRECURSORTYPE: [M-H]-
FORMULA: C8H6Cl2O3
charge: -1
ionization_mode: negative
precursor_mz: 218.962123412
retention_time: 484.2
Num Peaks: 19
218.962123019909 0.522497733874767
219.965477859909 0.0452095481852623
219.966339899909 0.000597098365645753
219.968399765909 0.000300470751114369
220.959172909909 0.334354410483747
220.966368799909 0.00322118855150998
220.968832699909 0.00171140966293144
221.962527749909 0.028930291658151
221.963389789909 0.000382092512757472
221.965449655909 0.000192275897756397
221.969723639909 0.000278716001222334
222.956222799909 0.053489644338213
222.963418689909 0.00206128855566531
222.965882589909 0.00109515760901421
223.959577639909 0.00462823567709596
223.960439679909 6.11267325055513e-05
223.966773529909 0.000178354695607956
224.960468579909 0.000329762635885211
224.962932479909 0.000175202088453698

NAME: 2-diethylamino-6-methyl pyrimidin-4-ol/one (M-H)
msLevel: MS1
PRECURSORTYPE: [M-H]-
FORMULA: C9H15N3O1
charge: -1
ionization_mode: negative
precursor_mz: 180.1142361
retention_time: 451.8
Num Peaks: 11
180.114235677909 0.894221400895406
181.111270637909 0.00980057177905359
181.117590517909 0.0870449013506799
181.118452557909 0.000340631867778957
181.120512423909 0.00143986203957616
182.114625477909 0.000954002893280967
182.118481457909 0.00183761928670227
182.120945357909 0.00376581600910654
182.123867263909 0.000140158409391675
183.121836297909 0.000178876718194106
183.124300197909 9.50367664281411e-05

NAME: 3,5,6-Trichloro-2-pyridinol (M-H)
msLevel: MS1
PRECURSORTYPE: [M-H]-
FORMULA: C5H2Cl3N1O1
charge: -1
ionization_mode: negative
precursor_mz: 195.912920724
retention_time: 499.2
Num Peaks: 27
195.912920371909 0.409514855421874
196.909955331909 0.00149607980422299
196.916275211909 0.0221460070404026
196.917137251909 0.000155994712210985
196.919197117909 4.7099624830371e-05
197.909970261909 0.393082369143066
197.913310171909 8.09059633335996e-05
197.917166151909 0.000841550421138207
197.919630051909 0.000479050389835858
198.907005221909 0.00143604703488775
198.913325101909 0.0212573605065744
198.914187141909 0.000149735156705158
198.916247007909 4.52096715636824e-05
198.920520991909 4.55099034983262e-05
199.907020151909 0.125769754857813
199.910360061909 7.76594727246484e-05
199.914216041909 0.000807781766435724
199.916679941909 0.00045982767091953
200.904055111909 0.00045947439447834
200.910374991909 0.00680145747992823
200.911237031909 4.7908925535019e-05
200.917570881909 4.36837405279604e-05
201.904070041909 0.0134136697366833
201.911265931909 0.000258456045649445
201.913729831909 0.00014712543219495
202.901105001909 4.90041328852295e-05
202.907424881909 0.00072539303640206

NAME: 3-phenoxybenzoic acid (M-H)
msLevel: MS1
PRECURSORTYPE: [M-H]-
FORMULA: C13H10O3
charge: -1
ionization_mode: negative
precursor_mz: 213.05571818
retention_time: 517.8
Num Peaks: 10
213.055717727909 0.862272901176545
214.059072567909 0.121239422373049
214.059934607909 0.000985385594335497
214.061994473909 0.000892555096553828
215.059963507909 0.0053158959694415
215.062427407909 0.0078677559045282
215.063289447909 0.000138549617074768
215.065349313909 0.000125497234338055
216.063318347909 0.000747438723692826
216.065782247909 0.000312016870502028

NAME: 4-Fluoro-3-phenoxybenzoic acid (M-H)
msLevel: MS1
PRECURSORTYPE: [M-H]-
FORMULA: C13H9F1O3
charge: -1
ionization_mode: negative
precursor_mz: 231.046296368
retention_time: 532.2
Num Peaks: 10
231.046295895909 0.862372073965051
232.049650735909 0.121253366510198
232.050512775909 0.000985498926712069
232.052572641909 0.00079347355750696
233.050541675909 0.00531650736778879
233.053005575909 0.00786866080052026
233.053867615909 0.000138565552113261
233.055927481909 0.000111565927271018
234.053896515909 0.000747524689032064
234.056360415909 0.000312052756569034

NAME: 4-nitrophenol (M-H)
msLevel: MS1
PRECURSORTYPE: [M-H]-
FORMULA: C6H5N1O3
charge: -1
ionization_mode: negative
precursor_mz: 138.01966702
retention_time: 165
Num Peaks: 9
138.019666577909 0.926861177685563
139.016701537909 0.00338610009110708
139.023021417909 0.0601480719775732
139.023883457909 0.00105919558783999
139.025943323909 0.000426405178330867
140.020056377909 0.00021973883134446
140.023912357909 0.00571408146071575
140.026376257909 0.00162636300960283
141.027267197909 0.00037081171512984

NAME: 6-Chloronicotinic acid (M-H)
msLevel: MS1
PRECURSORTYPE: [M-H]-
FORMULA: C6H4Cl1N1O2
charge: -1
ionization_mode: negative
precursor_mz: 155.985780048
retention_time: 172.2
Num Peaks: 16
155.985779635909 0.70398146431364
156.982814595909 0.00257185407894903
156.989134475909 0.0456844334468166
156.989996515909 0.000536329192816912
156.992056381909 0.000242901538865175
157.982829525909 0.22524433335484
157.986169435909 0.000166898849558807
157.990025415909 0.00289335485598597
157.992489315909 0.00123527604842044
158.979864485909 0.000822884673623606
158.986184365909 0.0146170890542613
158.987046405909 0.000171602687881229
158.989106271909 7.77182326041691e-05
158.993380255909 0.00018776243986081
159.987075305909 0.000925751342517159
159.989539205909 0.000395236159103901

NAME: Acetochlor mercapturate (M-H)
msLevel: MS1
PRECURSORTYPE: [M-H]-
FORMULA: C19H28N2O5S1
charge: -1
ionization_mode: negative
precursor_mz: 395.164616996
retention_time: 607.2
Num Peaks: 24
395.164616293909 0.757026298222216
396.161651253909 0.00553128532965769
396.164004103909 0.00597715258097339
396.167971133909 0.155568024288463
396.168833173909 0.00144185367104284
396.170893039909 0.00235083700223524
397.160412433909 0.0338705312921825
397.165006093909 0.00113667270546791
397.167358943909 0.00122829790732022
397.168862073909 0.00777842112009956
397.171325973909 0.0151432333356707
397.172188013909 0.000296299253333681
397.174247879909 0.000483094271256872
398.157447393909 0.000247478288778242
398.163767273909 0.00696035480814789
398.166689179909 0.000105180095373195
398.168360933909 0.000110645488260952
398.170713783909 0.000119564427852963
398.172216913909 0.00159845649824749
398.174680813909 0.000928115550981669
399.159626443909 7.96953677463118e-05
399.164658213909 0.000348018631018245
399.167122113909 0.00067753175783346
399.175571753909 0.000155596240555173

NAME: Alachlor mercapturate (M-H)
msLevel: MS1
PRECURSORTYPE: [M-H]-
FORMULA: C19H28N2O5S1
charge: -1
ionization_mode: negative
precursor_mz: 395.164616996
retention_time: 607.2
Num Peaks: 24
395.164616293909 0.757026298222216
396.161651253909 0.00553128532965769
396.164004103909 0.00597715258097339
396.167971133909 0.155568024288463
396.168833173909 0.00144185367104284
396.170893039909 0.00235083700223524
397.160412433909 0.0338705312921825
397.165006093909 0.00113667270546791
397.167358943909 0.00122829790732022
397.168862073909 0.00777842112009956
397.171325973909 0.0151432333356707
397.172188013909 0.000296299253333681
397.174247879909 0.000483094271256872
398.157447393909 0.000247478288778242
398.163767273909 0.00696035480814789
398.166689179909 0.000105180095373195
398.168360933909 0.000110645488260952
398.170713783909 0.000119564427852963
398.172216913909 0.00159845649824749
398.174680813909 0.000928115550981669
399.159626443909 7.96953677463118e-05
399.164658213909 0.000348018631018245
399.167122113909 0.00067753175783346
399.175571753909 0.000155596240555173

NAME: Bentazone (M-H)
msLevel: MS1
PRECURSORTYPE: [M-H]-
FORMULA: C10H12N2O3S1
charge: -1
ionization_mode: negative
precursor_mz: 239.049587244
retention_time: 747.6
Num Peaks: 20
239.049586541909 0.839597762562577
240.046621501909 0.00613460166150343
240.048974351909 0.00662910118877705
240.052941381909 0.0908086127506274
240.053803421909 0.000959472968635121
240.055863287909 0.00106221332417394
241.045382681909 0.0375649067364033
241.049976341909 0.000663501847549648
241.052329191909 0.000716985572828409
241.053832321909 0.00517610417289999
241.056296221909 0.00441972576967827
241.057158261909 0.000103773989329787
241.059218127909 0.000114886107031852
242.042417641909 0.000274471597656486
242.048737521909 0.00406291824602765
242.057187161909 0.000559833363489638
242.059651061909 0.000127473474808605
243.044596691909 8.83880158503607e-05
243.049628461909 0.000231586932675281
243.052092361909 0.000197745389210787

NAME: Diethylthiophosphate (M-H)
msLevel: MS1
PRECURSORTYPE: [M-H]-
FORMULA: C4H11O3P1S1
charge: -1
ionization_mode: negative
precursor_mz: 169.009375842
retention_time: 177
Num Peaks: 13
169.009374979909 0.902236924603131
170.008762789909 0.00712367294928254
170.012729819909 0.0390333977287112
170.013591859909 0.00103105555905608
170.015651725909 0.00103769179785035
171.005171119909 0.0403674800459344
171.012117629909 0.000308190844262906
171.013620759909 0.00556227341069725
171.016084659909 0.000633261936263838
172.008525959909 0.00174641478415647
172.016975599909 0.000240640151599962
173.004385129909 9.49823059904339e-05
173.009416899909 0.000248864743609468

NAME: Fenhexamid (M-H)
msLevel: MS1
PRECURSORTYPE: [M-H]-
FORMULA: C14H17Cl2N1O2
charge: -1
ionization_mode: negative
precursor_mz: 300.056358144
retention_time: 689.4
Num Peaks: 29
300.056357761909 0.488625306023648
301.053392721909 0.00178509385556032
301.059712601909 0.0739877396566688
301.060574641909 0.000372259823950172
301.062634507909 0.000899173968089843
302.053407651909 0.31267891811017
302.056747561909 0.000270299261662727
302.060603541909 0.00200824378709961
302.063067441909 0.00520150337927961
302.063929481909 5.63676555420355e-05
302.065989347909 0.000136153098574607
303.050442611909 0.00114230926765528
303.056762491909 0.047345903096031
303.057624531909 0.000238214839824503
303.059684397909 0.000575395379791388
303.063958381909 0.000304088668055718
303.066422281909 0.000225032189056067
304.050457541909 0.0500220233301908
304.053797451909 0.000172968693313213
304.057653431909 0.00128510637273745
304.060117331909 0.00332852275379455
304.063039237909 8.71264812420398e-05
305.047492501909 0.000182745358025106
305.053812381909 0.0075743445818888
305.056734287909 9.20511088050637e-05
305.061008271909 0.000194591058967017
305.063472171909 0.000144001590884875
306.054703321909 0.000205589879059898
306.057167221909 0.000532493344456045

NAME: Fenvalerate free acid (M-H)
msLevel: MS1
PRECURSORTYPE: [M-H]-
FORMULA: C11H13Cl1O2
charge: -1
ionization_mode: negative
precursor_mz: 211.053131336
retention_time: 585
Num Peaks: 16
211.053130913909 0.668860370672033
212.056485753909 0.0795763323846136
212.057347793909 0.000509572142015843
212.059407659909 0.000923133471876671
213.050180803909 0.21400706685705
213.057376693909 0.00274900760824337
213.059840593909 0.00430337994802065
213.062762499909 0.000109827968907191
214.053535643909 0.0254610651663547
214.054397683909 0.000163041561806548
214.056457549909 0.000295363719090424
214.060731533909 0.000327057713019553
214.063195433909 0.000139632564774551
215.054426583909 0.000879566320272165
215.056890483909 0.00137689981441421
216.057781423909 0.000104644653690522

NAME: Fipronil (M-H)
msLevel: MS1
PRECURSORTYPE: [M-H]-
FORMULA: C12H4Cl2F6N4O1S1
charge: -1
ionization_mode: negative
precursor_mz: 434.931430428
retention_time: 750
Num Peaks: 45
434.931429685909 0.470925930271005
435.928464645909 0.00688173104575237
435.930817495909 0.00371822768400099
435.934784525909 0.0611208828937603
435.935646565909 0.000179387765773812
435.937706431909 0.000162488132078686
436.927225825909 0.0210699568760056
436.927852455909 5.43351751164784e-05
436.928479575909 0.301352812823896
436.931819485909 0.000893171198094213
436.934172335909 0.000482584084328037
436.935675465909 0.000967749789042935
436.938139365909 0.00363586774314949
437.924260785909 0.000307899325660044
437.925514535909 0.00440372651924598
437.927867385909 0.00237935161193727
437.930580665909 0.00273464314452554
437.931834415909 0.0391122017250462
437.932696455909 0.000114793015901722
437.934756321909 0.000103978677972211
437.935174325909 5.31316334861462e-05
437.939030305909 0.000125603025283648
437.941494205909 0.000131081858727382
438.924275715909 0.0134829924676446
438.925529465909 0.0482100856840762
438.926439835909 4.95763691200132e-05
438.928869375909 0.000571554114091967
438.931222225909 0.000308813046571056
438.932725355909 0.000619278112101393
438.933935505909 0.000162674364758241
438.935189255909 0.00232664820733748
439.921310675909 0.000197029557919733
439.922564425909 0.000704503239351389
439.924917275909 0.000380646007611929
439.927630555909 0.00174994059723599
439.928884305909 0.0062571262527397
439.936080195909 8.0375325577498e-05
439.938544095909 8.3881316144449e-05
440.921325605909 0.00215699404313427
440.925919265909 9.14365874180919e-05
440.928272115909 4.9403565528527e-05
440.929775245909 9.90714192010147e-05
440.930985395909 0.000104097851154693
440.932239145909 0.000372214575936249
441.924680445909 0.000279953537994986

NAME: Fipronil sulfone (M-H)
msLevel: MS1
PRECURSORTYPE: [M-H]-
FORMULA: C12H4Cl2F6N4O2S1
charge: -1
ionization_mode: negative
precursor_mz: 450.926345048
retention_time: 771
Num Peaks: 47
450.926344305909 0.469781580260447
451.923379265909 0.0068650084393112
451.925732115909 0.00370919239072887
451.929699145909 0.0609723591483285
451.930561185909 0.000357903707005964
451.932621051909 0.000162093285917735
452.922140445909 0.0210187568807969
452.922767075909 5.42031406409453e-05
452.923394195909 0.300620525488734
452.926734105909 0.000891000792082844
452.929086955909 0.00048141140500312
452.930590085909 0.00193079631411112
452.933053985909 0.00362703258453364
453.919175405909 0.00030715113029869
453.920429155909 0.00439302546380421
453.922782005909 0.00237356978752027
453.925495285909 0.00272799796168435
453.926749035909 0.0390171590748543
453.927611075909 0.000229028137746161
453.929670941909 0.000103726009784738
453.930088945909 5.30025236167749e-05
453.933944925909 0.000250595619864417
453.936408825909 0.000130763329810674
454.919190335909 0.0134502287959482
454.920444085909 0.0480929351758639
454.921354455909 4.94558985430516e-05
454.923783995909 0.000570165237594724
454.926136845909 0.000308062630867889
454.926386225909 8.6386823191623e-05
454.927639975909 0.00123554653257797
454.928850125909 0.000162279066051879
454.930103875909 0.00232099445219365
455.916225295909 0.000196550776093988
455.917479045909 0.000702791296479765
455.919831895909 0.000379721037813432
455.922545175909 0.0017456882415847
455.923798925909 0.00624192143594554
455.930994815909 0.000160360027072689
455.933458715909 8.3677484546218e-05
456.916240225909 0.00215175254760945
456.920833885909 9.12143965106659e-05
456.923186735909 4.92835148642926e-05
456.923436115909 5.52802691173427e-05
456.924689865909 0.000197661351304713
456.925900015909 0.000103844893376387
456.927153765909 0.000371310094516724
457.919595065909 0.000279273250897658

NAME: Hydroxy-tebuconazole (M-H)
msLevel: MS1
PRECURSORTYPE: [M-H]-
FORMULA: C16H22Cl1N3O2
charge: -1
ionization_mode: negative
precursor_mz: 322.132778624
retention_time: 696.6
Num Peaks: 24
322.132778231909 0.626289083545843
323.129813191909 0.00686406197792023
323.136133071909 0.108380360965378
323.136995111909 0.00047713915163331
323.139054977909 0.00151266209290389
324.129828121909 0.200386053130296
324.133168031909 0.00118783726940255
324.137024011909 0.00257404016012706
324.139487911909 0.00879159402352327
324.140349951909 8.25697187502503e-05
324.142409817909 0.000261768675129027
325.126863081909 0.00219620990423425
325.133182961909 0.0346771376689646
325.134045001909 0.000152664374809813
325.136104867909 0.000483987976927012
325.136522871909 9.63549387137923e-05
325.140378851909 0.000445441903784245
325.142842751909 0.000443741630352703
326.130217921909 0.000380057753568081
326.134073901909 0.000823584127263464
326.136537801909 0.00281293874247893
326.139459707909 8.37549192862675e-05
327.137428741909 0.000142522594347018
327.139892641909 0.000141978578666176

NAME: Fluopyram (M-H)
msLevel: MS1
PRECURSORTYPE: [M-H]-
FORMULA: C16H11Cl1F6N2O1
charge: -1
ionization_mode: negative
precursor_mz: 395.039133972
retention_time: 725.4
Num Peaks: 22
395.039133449909 0.630905904516993
396.036168409909 0.00460977456429775
396.042488289909 0.10917930946458
396.043350329909 0.000240328241342921
396.045410195909 0.000725625237096808
397.036183339909 0.201863240832787
397.039523249909 0.000797729106851082
397.043379229909 0.00129650761777102
397.045843129909 0.00885640309767772
397.048765035909 0.000125570646508616
398.033218299909 0.00147493314992843
398.039538179909 0.0349327674422047
398.040400219909 7.68948860896568e-05
398.042460085909 0.000232169426441745
398.042878089909 6.47101595317895e-05
398.046734069909 0.000224362785972302
398.049197969909 0.00044701276459184
399.036573139909 0.000255239619193113
399.040429119909 0.000414827674957359
399.042893019909 0.00283367490876066
400.043783959909 7.17866147303142e-05
400.046247859909 0.000143025203454411

NAME: Mecoprop (M-H)
msLevel: MS1
PRECURSORTYPE: [M-H]-
FORMULA: C10H11Cl1O3
charge: -1
ionization_mode: negative
precursor_mz: 213.032395892
retention_time: 544.8
Num Peaks: 17
213.032395469909 0.674606823518754
214.035750309909 0.0729636410760201
214.036612349909 0.000770925126869673
214.038672215909 0.000775887074060084
215.029445359909 0.215845689045599
215.036641249909 0.0041589381844285
215.039105149909 0.00355119712707001
215.039967189909 8.33811670626251e-05
215.042027055909 8.39178377887688e-05
216.032800199909 0.0233452832587477
216.033662239909 0.000246663477762947
216.035722105909 0.000248251091277936
216.039996089909 0.000449819453890477
216.042459989909 0.000102423421974188
217.033691139909 0.00133068455108958
217.036155039909 0.00113623308289569
218.037045979909 0.000143923225479213

NAME: p-Toluenesulfonamide (M-H)
msLevel: MS1
PRECURSORTYPE: [M-H]-
FORMULA: C7H9N1O2S1
charge: -1
ionization_mode: negative
precursor_mz: 170.028123528
retention_time: 362.4
Num Peaks: 17
170.028122815909 0.872725009190018
171.025157775909 0.00318832453475819
171.027510625909 0.00689065961567021
171.031477655909 0.0660740960157004
171.032339695909 0.000664886681620752
171.034399561909 0.000802999353380455
172.023918955909 0.0390470711554645
172.028512615909 0.000241388363138975
172.030865465909 0.000521692515125542
172.032368595909 0.00358688867716458
172.034832495909 0.00214391840908115
173.020953915909 0.000142650587143092
173.027273795909 0.00295625758571141
173.035723435909 0.000271563693439429
174.023132965909 9.18754615422695e-05
174.028164735909 0.000160482965343189
174.030628635909 9.59222364311494e-05

NAME: Triclosan (M-H)
msLevel: MS1
PRECURSORTYPE: [M-H]-
FORMULA: C12H7Cl3O2
charge: -1
ionization_mode: negative
precursor_mz: 286.943886504
retention_time: 811.8
Num Peaks: 27
286.943886141909 0.380052056320174
287.947240981909 0.049326477339038
287.948103021909 0.000289543152664306
287.950162887909 0.000262266079460058
288.940936031909 0.364801815411867
288.948131921909 0.00156200911305744
288.950595821909 0.00293425977095157
289.944290871909 0.0473471677942825
289.945152911909 0.0002779247368235
289.947212777909 0.000251742202987532
289.951486761909 0.000202731193891211
289.953950661909 0.000105787188076356
290.937985921909 0.116721172196194
290.945181811909 0.00149933081707414
290.947645711909 0.00281651756261349
291.941340761909 0.0151490938137989
291.942202801909 8.89241766182898e-05
291.944262667909 8.05468717056199e-05
291.948536651909 0.00019459625686073
291.951000551909 0.000101542295629787
292.935035811909 0.0124486149860777
292.942231701909 0.000479722531756563
292.944695601909 0.000901166654141381
293.938390651909 0.00161569004772301
293.945586541909 6.22625827125672e-05
294.939281591909 5.11636491102565e-05
294.941745491909 9.61117550879403e-05

NAME: Triclosan glucuronide (M-H)
msLevel: MS1
PRECURSORTYPE: [M-H]-
FORMULA: C18H15Cl3O8
charge: -1
ionization_mode: negative
precursor_mz: 462.97597448
retention_time: 665.4
Num Peaks: 38
462.975974117909 0.350809905638863
463.979328957909 0.0682967631922016
463.980190997909 0.00106905992876905
463.982250863909 0.00056486890800299
464.973024007909 0.336733056204569
464.980219897909 0.00576729698414884
464.982683797909 0.00627877348865939
464.983545837909 0.000208127910927848
464.985605703909 0.000109970435339509
465.976378847909 0.0655562383756191
465.977240887909 0.00102616206467906
465.979300753909 0.000542202573785341
465.983574737909 0.00112279530895286
465.986038637909 0.000362184043013069
466.970073897909 0.107740354836309
466.977269787909 0.00553587429629493
466.979733687909 0.0060268269283964
466.980595727909 0.000199776421365801
466.982655593909 0.000105557682918282
466.984465677909 4.14811550680834e-05
466.986929577909 0.000103222716414902
467.973428737909 0.0209752272732973
467.974290777909 0.000328328516998685
467.976350643909 0.000173481921707453
467.980624627909 0.00107774122052603
467.983088527909 0.00034765078679924
468.967123787909 0.0114907875802188
468.974319677909 0.00177124594696659
468.976783577909 0.00192833005206347
468.977645617909 6.3920016551043e-05
468.981515567909 3.98166525415922e-05
468.983979467909 9.9080727794241e-05
469.970478627909 0.00223706225406867
469.977674517909 0.00034483166823589
469.980138417909 0.00011123356747642
470.971369567909 0.000188907962664864
470.973833467909 0.000205661388868438
471.974724407909 3.67771895373019e-05

NAME: Triclosan sulfate (M-H)
msLevel: MS1
PRECURSORTYPE: [M-H]-
FORMULA: C12H7Cl3O5S1
charge: -1
ionization_mode: negative
precursor_mz: 366.900701364
retention_time: 695.4
Num Peaks: 52
366.900700731909 0.35838606486982
367.900088541909 0.00282966152913322
367.904055571909 0.0465144756184018
367.904917611909 0.000682592222352976
367.906977477909 0.000247314825965162
368.896496871909 0.0160347486650883
368.897750621909 0.34400520904611
368.903443381909 0.000367258203114026
368.904946511909 0.00368240541006211
368.907410411909 0.00276698361482154
368.908272451909 8.85927841404246e-05
369.897138431909 0.00271611650473295
369.899851711909 0.00208112981764615
369.901105461909 0.0446480024679274
369.901967501909 0.00065520203814029
369.904027367909 0.000237390894194648
369.908301351909 0.000477934756547028
369.910765251909 9.97564765611727e-05
370.893546761909 0.0153913268601534
370.894800511909 0.110067136579695
370.895710881909 3.7728820388443e-05
370.900493271909 0.000352521337519166
370.900742651909 0.000164756532190377
370.901996401909 0.00353464257417788
370.903206551909 0.000123799140572603
370.904460301909 0.00265595364928487
370.905322341909 8.50378466564372e-05
371.894188321909 0.000869042556424586
371.896901601909 0.0019976209126086
371.898155351909 0.0142854749184604
371.899017391909 0.000209636977356397
371.901077257909 7.5955059071783e-05
371.905351241909 0.000458756804330779
371.907815141909 9.57535767625195e-05
372.890596651909 0.00492457448640599
372.891850401909 0.011738944872808
372.892760771909 3.62148867297726e-05
372.897543161909 0.000112791937981317
372.897792541909 0.000158145393623076
372.899046291909 0.00113093632521214
372.900256441909 0.0001188314876246
372.901510191909 0.000849792983878898
373.891238211909 9.2685636957638e-05
373.893951491909 0.000639154315227463
373.895205241909 0.00152358285825185
373.902401131909 0.000146782800118507
374.887646541909 0.000525218609426615
374.894842431909 5.05998461117128e-05
374.896096181909 0.000120617284948708
374.897306331909 3.80210567584516e-05
374.898560081909 9.063262024474e-05
375.891001381909 6.81674612861391e-05

NAME: acetamiprid-N-desmethyl (M-H)
msLevel: MS1
PRECURSORTYPE: [M-H]-
FORMULA: C9H9N4Cl1
charge: -1
ionization_mode: negative
precursor_mz: 207.044297968
retention_time: 402.6
Num Peaks: 13
207.044297585909 0.677107477201592
208.041332545909 0.00989470158181298
208.047652425909 0.0659106944855082
208.050574331909 0.000623010525235867
209.041347475909 0.216645792599876
209.044687385909 0.000963165634619013
209.051007265909 0.00285148865256217
210.038382435909 0.00316588656735938
210.044702315909 0.0210886382567149
210.047624221909 0.000199337052952975
210.054362105909 7.19621618238169e-05
211.041737275909 0.000308172320263528
211.048057155909 0.000912355925793386

NAME: 2,4-Dichlorophenoxyacetic acid ou 2,4-D (2M-H)
msLevel: MS1
PRECURSORTYPE: [2M-H]-
FORMULA: C8H6Cl2O3
charge: -1
ionization_mode: negative
precursor_mz: 438.931522824
retention_time: 484.2
Num Peaks: 43
438.931522491909 0.272972486457847
439.934877331909 0.0472383399187137
439.935739371909 0.000623893329915587
439.937799237909 0.000345349910608897
440.928572381909 0.349358662710571
440.935768271909 0.00336574033243935
440.938232171909 0.00383187787170401
440.939094211909 0.000107965771840239
440.941154077909 5.97633727850431e-05
441.931927221909 0.0604570939614372
441.932789261909 0.000798478052648038
441.934849127909 0.000441989537125642
441.939123111909 0.000582446927032869
441.941587011909 0.00019340789958599
442.925622271909 0.167670023444514
442.932818161909 0.00430757896823283
442.935282061909 0.00490415626241316
442.936144101909 0.000138177946642418
442.938203967909 7.64870198685029e-05
442.942477951909 4.72469078079326e-05
443.928977111909 0.0290155746625905
443.929839151909 0.000383218875320521
443.931899017909 0.00021212697425935
443.936173001909 0.000745433659518307
443.938636901909 0.000247529434317022
444.922672161909 0.0357648835647221
444.929868051909 0.00206736498528176
444.932331951909 0.00235368428856049
444.933193991909 6.63166597138109e-05
444.935253857909 3.67089234743765e-05
444.939527841909 6.04680594120531e-05
445.926027001909 0.00618917220891582
445.926889041909 8.17425689701639e-05
445.928948907909 4.52477812042119e-05
445.933222891909 0.000357760927403454
445.935686791909 0.000118798445509067
446.919722051909 0.00286081302009261
446.926917941909 0.000440979648391673
446.929381841909 0.000502053037264222
447.923076891909 0.000495068421146118
447.930272781909 7.6312256954063e-05
448.923967831909 3.52737152752579e-05
448.926431731909 4.01589414707126e-05

NAME: 2-diethylamino-6-methyl pyrimidin-4-ol/one (2M-H)
msLevel: MS1
PRECURSORTYPE: [2M-H]-
FORMULA: C9H15N3O1
charge: -1
ionization_mode: negative
precursor_mz: 361.2357482
retention_time: 451.8
Num Peaks: 14
361.235747807909 0.799539956149254
362.232782767909 0.0175257463590466
362.239102647909 0.155656924648081
362.239964687909 0.000609130553919457
362.242024553909 0.00266677243258751
363.229817727909 0.00016006693551259
363.236137607909 0.00341196679344221
363.239993587909 0.00328609904088128
363.242457487909 0.0143101155329455
363.243319527909 0.000118587430187898
363.245379393909 0.000519175548889472
364.239492447909 0.000313674699144415
364.243348427909 0.000639747978645239
364.245812327909 0.000825463047690375

NAME: 3,5,6-Trichloro-2-pyridinol (2M-H)
msLevel: MS1
PRECURSORTYPE: [2M-H]-
FORMULA: C5H2Cl3N1O1
charge: -1
ionization_mode: negative
precursor_mz: 392.833117448
retention_time: 499.2
Num Peaks: 46
392.833117195909 0.167683131033265
393.830152155909 0.00122519289606384
393.836472035909 0.0181361518453041
393.837334075909 0.000127749611140352
393.839393941909 5.78573337998634e-05
394.830167085909 0.32190911533102
394.833506995909 0.000132513534700122
394.837362975909 0.00068917553378348
394.839826875909 0.000882700607855445
395.827202045909 0.00235205985749109
395.833521925909 0.0348168152637411
395.834383965909 0.000245246877564056
395.836443831909 0.000111071418002272
395.840717815909 7.45393531940082e-05
396.827216975909 0.257493299749997
396.830556885909 0.000254392403468661
396.834412865909 0.00132304236580609
396.836876765909 0.00169456146259894
397.824251935909 0.00188139951641975
397.830571815909 0.0278497756729503
397.831433855909 0.000196171604809685
397.833493721909 8.88454056353971e-05
397.837767705909 0.000143096667483323
397.840231605909 4.88744436128136e-05
398.824266865909 0.10984930633474
398.827606775909 0.000203487059796738
398.831462755909 0.00105829418384172
398.833926655909 0.00135547023011478
399.821301825909 0.000802624503308952
399.827621705909 0.0118810025046166
399.828483745909 8.36888366875532e-05
399.830543611909 3.7902369457973e-05
399.834817595909 0.000114462223462109
399.837281495909 3.90943939141566e-05
400.821316755909 0.0263603536056702
400.824656665909 8.68096854887879e-05
400.828512645909 0.000451479250551274
400.830976545909 0.000578257627208419
401.818351715909 0.000192604454463526
401.824671595909 0.00285106422299273
401.831867485909 4.88307690376896e-05
402.818366645909 0.00337367989124311
402.825562535909 0.000108340717727325
402.828026435909 0.000138763511914586
403.821721485909 0.000364888050503399
404.815416535909 0.000179905844253197

NAME: 3-phenoxybenzoic acid (2M-H)
msLevel: MS1
PRECURSORTYPE: [2M-H]-
FORMULA: C13H10O3
charge: -1
ionization_mode: negative
precursor_mz: 427.11871236
retention_time: 517.8
Num Peaks: 12
427.118711907909 0.743429051929464
428.122066747909 0.209058892395408
428.122928787909 0.00169914716601259
428.124988653909 0.00162457930508596
429.122957687909 0.00916645181664687
429.125421587909 0.0282640522166035
429.126283627909 0.000477815366000912
429.128343493909 0.000456846217198944
430.126312527909 0.00257768815868913
430.128776427909 0.00244557047381103
431.129667367909 0.000348494684347186
431.132131267909 0.000152091098151444

NAME: 4-Fluoro-3-phenoxybenzoic acid (2M-H)
msLevel: MS1
PRECURSORTYPE: [2M-H]-
FORMULA: C13H9F1O3
charge: -1
ionization_mode: negative
precursor_mz: 463.099868736
retention_time: 532.2
Num Peaks: 12
463.099868243909 0.743600070111479
464.103223083909 0.209106984236342
464.104085123909 0.00169953803728477
464.106144989909 0.0014539053361816
465.104114023909 0.00916856046429944
465.106577923909 0.0282705540701615
465.107439963909 0.000477925282495324
465.109499829909 0.000408851172066837
466.107468863909 0.00257828112925109
466.109932763909 0.0024461330520629
467.110823703909 0.000348574851953233
467.113287603909 0.000152126085139159

NAME: 4-nitrophenol (2M-H)
msLevel: MS1
PRECURSORTYPE: [2M-H]-
FORMULA: C6H5N1O3
charge: -1
ionization_mode: negative
precursor_mz: 277.04661004
retention_time: 165
Num Peaks: 12
277.046609607909 0.858972849461758
278.043644567909 0.00627616759412421
278.049964447909 0.111485003407348
278.050826487909 0.00196322874261737
278.052886353909 0.000889139150195192
279.046999407909 0.000814575881012381
279.050855387909 0.0105911024272779
279.053319287909 0.00663185328062514
279.054181327909 0.000254804983879582
279.056241193909 0.000115400249555304
280.054210227909 0.00137460583408722
280.056674127909 0.000239094410535021

NAME: 6-Chloronicotinic acid (2M-H)
msLevel: MS1
PRECURSORTYPE: [2M-H]-
FORMULA: C6H4Cl1N1O2
charge: -1
ionization_mode: negative
precursor_mz: 312.978836096
retention_time: 172.2
Num Peaks: 30
312.978835723909 0.495532909258436
313.975870683909 0.00362065877735097
313.982190563909 0.0643145916797566
313.983052603909 0.000755044780890387
313.985112469909 0.000398949871188228
314.975885613909 0.317099200644786
314.979225523909 0.000469920738918291
314.983081503909 0.00407326789690867
314.985545403909 0.00382585031876446
314.986407443909 9.79963103874716e-05
314.988467309909 5.17792009103087e-05
315.972920573909 0.00231691575403874
315.979240453909 0.041155905552199
315.980102493909 0.00048316487562785
315.982162359909 0.000255294215353818
315.986436343909 0.000528664306037676
315.988900243909 0.000137931191788065
316.972935503909 0.0507291751823496
316.976275413909 0.000300709575274006
316.980131393909 0.00260654735536077
316.982595293909 0.00244822100651664
316.983457333909 6.27093601845911e-05
317.969970463909 0.000370657588951288
317.976290343909 0.0065840757034405
317.977152383909 7.72961759848145e-05
317.983486233909 0.000338300495732663
317.985950133909 8.82643106901448e-05
318.977181283909 0.000416992528339131
318.979645183909 0.000391663656269558
319.980536123909 5.41209346393858e-05

NAME: Acetochlor mercapturate (2M-H)
msLevel: MS1
PRECURSORTYPE: [2M-H]-
FORMULA: C19H28N2O5S1
charge: -1
ionization_mode: negative
precursor_mz: 791.336509992
retention_time: 607.2
Num Peaks: 50
791.336509039909 0.573022910986169
792.333543999909 0.00837369382949799
792.335896849909 0.00904868266637807
792.339863879909 0.235511084208002
792.340725919909 0.00218279124447151
792.342785785909 0.0036247867624652
793.332305179909 0.0512758684428091
793.332931809909 0.000132230137322318
793.336898839909 0.00344156869612239
793.339251689909 0.00371898753881464
793.340754819909 0.0117755843451752
793.343218719909 0.0471236420893298
793.344080759909 0.00089712212675843
793.346140625909 0.00148977893219281
794.329340139909 0.000749304111493135
794.331692989909 0.000404852103717305
794.335660019909 0.0210742627199496
794.336522059909 0.000195322934814273
794.337789779909 0.000172078875171375
794.338581925909 0.000324357168975199
794.340142629909 0.000185949852803062
794.340253679909 0.000688626830483602
794.342606529909 0.000744135836761708
794.344109659909 0.00483973778909153
794.346573559909 0.00611611810802582
794.347031565909 7.44891372340153e-05
794.347435599909 0.000179506039615719
794.349495465909 0.000298091316716433
795.328101319909 0.00114708096053236
795.331519189909 0.000120649102218374
795.332694979909 0.000307962247784402
795.335047829909 0.000166393273396802
795.336550959909 0.00105371583255068
795.339014859909 0.00421676974164968
795.339876899909 8.02772721070287e-05
795.341144619909 7.07240176333581e-05
795.341936765909 0.000133310042358553
795.343497469909 7.64249571916759e-05
795.343608519909 8.93760083231522e-05
795.345000599909 0.000108894378925029
795.345961369909 9.6580452279595e-05
795.347464499909 0.000968387845295328
795.349928399909 0.000578814877048335
796.331456159909 0.000471447607957606
796.336049819909 6.16204659344206e-05
796.339905799909 0.000433074757419497
796.342369699909 0.000547289229584372
796.350819339909 0.000125685837800384
797.334810999909 9.43324107906682e-05
797.343260639909 8.66543497737687e-05

NAME: Alachlor mercapturate (2M-H)
msLevel: MS1
PRECURSORTYPE: [2M-H]-
FORMULA: C19H28N2O5S1
charge: -1
ionization_mode: negative
precursor_mz: 791.336509992
retention_time: 607.2
Num Peaks: 50
791.336509039909 0.573022910986169
792.333543999909 0.00837369382949799
792.335896849909 0.00904868266637807
792.339863879909 0.235511084208002
792.340725919909 0.00218279124447151
792.342785785909 0.0036247867624652
793.332305179909 0.0512758684428091
793.332931809909 0.000132230137322318
793.336898839909 0.00344156869612239
793.339251689909 0.00371898753881464
793.340754819909 0.0117755843451752
793.343218719909 0.0471236420893298
793.344080759909 0.00089712212675843
793.346140625909 0.00148977893219281
794.329340139909 0.000749304111493135
794.331692989909 0.000404852103717305
794.335660019909 0.0210742627199496
794.336522059909 0.000195322934814273
794.337789779909 0.000172078875171375
794.338581925909 0.000324357168975199
794.340142629909 0.000185949852803062
794.340253679909 0.000688626830483602
794.342606529909 0.000744135836761708
794.344109659909 0.00483973778909153
794.346573559909 0.00611611810802582
794.347031565909 7.44891372340153e-05
794.347435599909 0.000179506039615719
794.349495465909 0.000298091316716433
795.328101319909 0.00114708096053236
795.331519189909 0.000120649102218374
795.332694979909 0.000307962247784402
795.335047829909 0.000166393273396802
795.336550959909 0.00105371583255068
795.339014859909 0.00421676974164968
795.339876899909 8.02772721070287e-05
795.341144619909 7.07240176333581e-05
795.341936765909 0.000133310042358553
795.343497469909 7.64249571916759e-05
795.343608519909 8.93760083231522e-05
795.345000599909 0.000108894378925029
795.345961369909 9.6580452279595e-05
795.347464499909 0.000968387845295328
795.349928399909 0.000578814877048335
796.331456159909 0.000471447607957606
796.336049819909 6.16204659344206e-05
796.339905799909 0.000433074757419497
796.342369699909 0.000547289229584372
796.350819339909 0.000125685837800384
797.334810999909 9.43324107906682e-05
797.343260639909 8.66543497737687e-05

NAME: Bentazone (2M-H)
msLevel: MS1
PRECURSORTYPE: [2M-H]-
FORMULA: C10H12N2O3S1
charge: -1
ionization_mode: negative
precursor_mz: 479.106450488
retention_time: 747.6
Num Peaks: 35
479.106449535909 0.704843336593751
480.103484495909 0.0103000110209212
480.105837345909 0.0111302769227353
480.109804375909 0.152467880350816
480.110666415909 0.00161095743399837
480.112726281909 0.00186452504567072
481.102245675909 0.0630715692288334
481.102872305909 0.000162648873896008
481.106839335909 0.00222804241228862
481.109192185909 0.00240764102038346
481.110695315909 0.00869069142025436
481.113159215909 0.0156659860888108
481.114021255909 0.00034847355794567
481.116081121909 0.000403323925779374
482.099280635909 0.000921676952077376
482.101633485909 0.000497985860844563
482.105600515909 0.0136432991155063
482.106462555909 0.000144153470775725
482.107730275909 0.000126998742501609
482.108522421909 0.00016684348761134
482.110083125909 0.000137235889360791
482.110194175909 0.000228930062881975
482.112547025909 0.000247383715477589
482.114050155909 0.00187992314154901
482.116514055909 0.0010166342938458
483.098041815909 0.0014109599390596
483.101459685909 0.000148403692303137
483.102635475909 0.00019937214974685
483.104988325909 0.000107721595290343
483.106491455909 0.000777670039711149
483.108955355909 0.001401841054373
483.117404995909 0.00019316101014703
484.101396655909 0.000305211186655972
484.109846295909 0.000168221357018282
484.112310195909 9.09715917221741e-05

NAME: Diethylthiophosphate (2M-H)
msLevel: MS1
PRECURSORTYPE: [2M-H]-
FORMULA: C4H11O3P1S1
charge: -1
ionization_mode: negative
precursor_mz: 339.026027684
retention_time: 177
Num Peaks: 22
339.026026411909 0.813937854498483
340.025414221909 0.0128530032819005
340.029381251909 0.0704266454514001
340.030243291909 0.00186029883442419
340.032303157909 0.00196588599550332
341.021822551909 0.0728336852641026
341.028769061909 0.00111211672994105
341.030272191909 0.0100358226593937
341.032736091909 0.00266600411619826
341.033598131909 0.000160963893891348
341.035657997909 0.000170099910254811
342.021210361909 0.000575063311380956
342.025177391909 0.00630199480299928
342.026039431909 0.000166465313113019
342.028099297909 0.000175913579974505
342.029660001909 0.000158477039573539
342.033627031909 0.000868357848624379
343.017618691909 0.00162934604891271
343.021036561909 0.000171373377092006
343.026068331909 0.00089803655758339
343.028532231909 0.000238562322220078
344.020973531909 0.000140980513279013

NAME: Fenhexamid (2M-H)
msLevel: MS1
PRECURSORTYPE: [2M-H]-
FORMULA: C14H17Cl2N1O2
charge: -1
ionization_mode: negative
precursor_mz: 601.119992288
retention_time: 689.4
Num Peaks: 61
601.119991975909 0.23872723289739
602.117026935909 0.00174428344724095
602.123346815909 0.0722962488386313
602.124208855909 0.000363749304814732
602.126268721909 0.000906074047361041
603.117041865909 0.305530524046079
603.120381775909 0.000528239483264318
603.124237755909 0.00196233177597421
603.126701655909 0.0105561438843023
603.127563695909 0.000110157982131299
603.129623561909 0.00027439581986189
604.114076825909 0.00223238810776773
604.120396705909 0.0925269837301174
604.121258745909 0.000465537653046944
604.123318611909 0.00115962169524982
604.123736615909 7.71294787804819e-05
604.127592595909 0.00059427332465569
604.130056495909 0.00098949399528721
604.132978401909 4.0065173535884e-05
605.114091755909 0.146635293747564
605.117431665909 0.000676057290091187
605.121287645909 0.00251145312827956
605.123751545909 0.0135100806629086
605.124613585909 0.000140983605430976
605.126673451909 0.000351180288989029
605.130947435909 8.67712339497771e-05
605.133411335909 6.68881137519783e-05
606.111126715909 0.00107140485214407
606.117446595909 0.0444070898683615
606.118308635909 0.000223428577940693
606.120368501909 0.000556544942440384
606.120786505909 9.87127014592863e-05
606.124642485909 0.000760569450351317
606.127106385909 0.00126638513441193
606.130028291909 5.12766529308251e-05
607.111141645909 0.0312780668817401
607.114481555909 0.000324464665624545
607.118337535909 0.00120533838099584
607.120801435909 0.0064839827468764
607.121663475909 6.76631981714662e-05
607.123723341909 0.000168544288643626
607.127997325909 0.000111052519057159
607.130461225909 8.56054845484664e-05
608.108176605909 0.000228536198662198
608.114496485909 0.0094722620416146
608.115358525909 4.76584717465891e-05
608.117418391909 0.000118713915916534
608.117836395909 4.73758424638285e-05
608.121692375909 0.000365025148030278
608.124156275909 0.000607784628923149
609.108191535909 0.00250191506472208
609.111531445909 6.92099920339579e-05
609.115387425909 0.000257104913369757
609.117851325909 0.00138306706955547
609.120773231909 3.59513688553458e-05
609.125047215909 5.3298173084983e-05
609.127511115909 4.10852087933242e-05
610.111546375909 0.000757680939442773
610.118742265909 7.78617528005451e-05
610.121206165909 0.000129643606169457
611.114901215909 0.000110630760843534

NAME: Fenvalerate free acid (2M-H)
msLevel: MS1
PRECURSORTYPE: [2M-H]-
FORMULA: C11H13Cl1O2
charge: -1
ionization_mode: negative
precursor_mz: 423.113538672
retention_time: 585
Num Peaks: 31
423.113538279909 0.447322747423052
424.116893119909 0.106438668496297
424.117755159909 0.000681586832085005
424.119815025909 0.00128620081193465
425.110588169909 0.286248769734286
425.117784059909 0.00367698159414279
425.120247959909 0.0120877230421095
425.121109999909 0.000162180875642182
425.123169865909 0.000306046367259088
426.113943009909 0.0681117561866482
426.114805049909 0.000436157993921344
426.116864915909 0.000823059864870534
426.121138899909 0.000874923144911769
426.123602799909 0.000871583520675035
427.107638059909 0.0457937577769212
427.114833949909 0.0023529575987862
427.117297849909 0.00773512160878391
427.118159889909 0.000103782059809041
427.120219755909 0.000195843821076037
427.124493739909 9.93607756300791e-05
427.126957639909 4.47773500842097e-05
428.110992899909 0.0108964425156042
428.111854939909 6.97760676653471e-05
428.113914805909 0.000131672195911178
428.118188789909 0.000559876901601407
428.120652689909 0.000557739824212324
429.111883839909 0.000376423522931478
429.114347739909 0.00123745609686459
429.121543629909 6.35825026735247e-05
430.115238679909 8.95684800344383e-05
430.117702579909 8.92265927858153e-05

NAME: Fipronil (2M-H)
msLevel: MS1
PRECURSORTYPE: [2M-H]-
FORMULA: C12H4Cl2F6N4O1S1
charge: -1
ionization_mode: negative
precursor_mz: 870.870136856
retention_time: 750
Num Peaks: 116
870.870135823909 0.221745728109954
871.867170783909 0.00648082580850483
871.869523633909 0.003501616929834
871.873490663909 0.0575601970874723
871.874352703909 0.00016893727093193
871.876412569909 0.000178525841600297
872.864205743909 8.28673579834112e-05
872.865931963909 0.019842495935726
872.866558593909 0.000102339601144934
872.867185713909 0.283797067021399
872.870525623909 0.00168227642537556
872.872878473909 0.000908940895159579
872.874381603909 0.000911372119501201
872.876845503909 0.0071593877000035
872.877707543909 4.38523109019707e-05
872.879767409909 4.63412879035241e-05
873.862966923909 0.000579924406487958
873.864220673909 0.00829436206959647
873.865319773909 0.000156667775047842
873.866573523909 0.00448147805592271
873.869286803909 0.00515066507257095
873.870540553909 0.0736673272122665
873.871402593909 0.000216211164064941
873.873462459909 0.000228482914487392
873.873880463909 0.000209243014396505
873.876233313909 0.000113054864196286
873.877736443909 0.000236571677234316
873.880200343909 0.000567849275440825
874.861255633909 0.000106056217397988
874.861728103909 0.000443892029302219
874.862981853909 0.0253950423168954
874.863608483909 0.00013097739871981
874.864235603909 0.136204611363491
874.865145973909 4.668822573112e-05
874.866321763909 0.000150535315461546
874.867575513909 0.00215302959615119
874.868674613909 4.06674260914645e-05
874.869928363909 0.00116329077606485
874.870177743909 8.15524056822846e-05
874.871431493909 0.0011664023324556
874.872641643909 0.000640644230445623
874.873895393909 0.00916280664456625
874.874757433909 5.61235489051621e-05
874.876817299909 5.9309018943053e-05
874.881091283909 2.94249923013065e-05
874.883555183909 3.22439432405624e-05
875.860016813909 0.000742205259412254
875.861270563909 0.00398076827944202
875.862369663909 0.000200508282320997
875.863623413909 0.00215082552947927
875.865082943909 0.000115224373925816
875.866336693909 0.00659198106436746
875.866963323909 3.39987829690155e-05
875.867590443909 0.035355649649393
875.868452483909 0.000103767660050175
875.868466453909 3.40897225110474e-05
875.870512349909 0.000109657322739725
875.870930353909 0.000267795705859096
875.873283203909 0.000144691125032628
875.874786333909 0.000302771776988374
875.875996483909 5.08129154779136e-05
875.877250233909 0.000726751131820781
876.858305523909 5.0900264844124e-05
876.858777993909 0.000568106799909492
876.860031743909 0.0121880113337159
876.860658373909 6.28608529230765e-05
876.861285493909 0.0290531483584215
876.862195863909 5.97530407456362e-05
876.863371653909 0.000192659770157755
876.864625403909 0.00103331779456253
876.865724503909 5.20474344486325e-05
876.866978253909 0.000558305868766075
876.867227633909 0.000104373300619777
876.868481383909 0.000559799218691733
876.869691533909 0.000819916375184895
876.870945283909 0.00439756665253998
876.873867189909 2.84645713934716e-05
876.878141173909 3.76590186580607e-05
876.880605073909 4.12667995855983e-05
877.857066703909 0.000356211499897433
877.858320453909 0.000849118471433251
877.859419553909 9.62312717158324e-05
877.860673303909 0.000458782214313425
877.862132833909 0.000147467730937792
877.863386583909 0.00316373325634109
877.864640333909 0.00754154300863503
877.867980243909 0.000128524971819387
877.870333093909 6.94425726793344e-05
877.871836223909 0.000145311269948486
877.873046373909 6.50319467362527e-05
877.874300123909 0.000348794497795718
878.855827883909 0.000272655269861525
878.857081633909 0.00259976588110941
878.858335383909 0.00232394507724438
878.859245753909 2.86776737263903e-05
878.860421543909 9.24644831432941e-05
878.861675293909 0.000220412032208692
878.864028143909 0.000119089530613249
878.864277523909 5.00925714167779e-05
878.865531273909 0.000119408069879335
878.866741423909 0.000393507911849561
878.867995173909 0.000938023721027535
879.854116593909 7.59817560499277e-05
879.855370343909 6.79205113105267e-05
879.857723193909 3.66977325599176e-05
879.859182723909 7.07751675936922e-05
879.860436473909 0.000674840673475079
879.861690223909 0.000603243804544988
879.868886113909 3.09956457545873e-05
879.870096263909 3.12112141411054e-05
879.871350013909 7.43996711243242e-05
880.852877773909 5.81587798437466e-05
880.854131523909 0.000207953817839533
880.863791313909 8.39372736996953e-05
880.865045063909 7.50319924686756e-05
881.857486363909 5.39801277885293e-05

NAME: Fipronil sulfone (2M-H)
msLevel: MS1
PRECURSORTYPE: [2M-H]-
FORMULA: C12H4Cl2F6N4O2S1
charge: -1
ionization_mode: negative
precursor_mz: 902.859966096
retention_time: 771
Num Peaks: 127
902.859965063909 0.22066935325769
903.857000023909 0.00644936726370381
903.859352873909 0.00348461974825282
903.863319903909 0.0572807944168349
903.864181943909 0.000336234466705784
903.866241809909 0.000177659260187362
904.854034983909 8.2465111947074e-05
904.855761203909 0.0197461785734326
904.856387833909 0.00010184283498848
904.857014953909 0.282419489068976
904.860354863909 0.0016741104956223
904.862707713909 0.000904528809614195
904.864210843909 0.00181389646512331
904.866674743909 0.00712463535124991
904.867536783909 8.72788952289956e-05
904.869596649909 4.61163428849839e-05
905.852796163909 0.000577109398268054
905.854049913909 0.00825410044731681
905.855149013909 0.000155907294768654
905.856402763909 0.0044597245352507
905.859116043909 0.00512566325448044
905.859978083909 3.00873035793153e-05
905.860369793909 0.0733097390002153
905.861231833909 0.000430323309025776
905.861245803909 5.30136346946794e-05
905.863291699909 0.000227373836691745
905.863598653909 2.86434856056949e-05
905.863709703909 0.000208227328905614
905.866062553909 0.00011250608513396
905.867565683909 0.000470846671630108
905.870029583909 0.000565092881055369
906.851084873909 0.000105541410432792
906.851557343909 0.000441737335177854
906.852811093909 0.0252717723664206
906.853437723909 0.000130341621970473
906.854064843909 0.135543461226874
906.854975213909 4.64615966433709e-05
906.856151003909 0.000149804602724387
906.857404753909 0.00214257858573836
906.858503853909 4.04700225377443e-05
906.859757603909 0.00115764405200887
906.860006983909 0.000162313085098938
906.861260733909 0.002321481009218
906.862470883909 0.000637534482425774
906.863724633909 0.00911832950973062
906.864586673909 0.000111702239722854
906.866646539909 5.90211273248157e-05
906.870920523909 5.85643211807184e-05
906.873384423909 3.20874280736737e-05
907.849846053909 0.000738602524499347
907.851099803909 0.00396144525164255
907.852198903909 0.000199534996050274
907.853452653909 0.00214038521781567
907.854912183909 0.000114665063856942
907.856165933909 0.00655998296138362
907.856792563909 3.38337496431997e-05
907.857027973909 3.85066651933793e-05
907.857419683909 0.0351840299636725
907.858281723909 0.000206527923919974
907.858295693909 6.78484955120923e-05
907.860341589909 0.000109125035666735
907.860648543909 3.66588221268239e-05
907.860759593909 0.000266495800035485
907.863112443909 0.000143988780551594
907.863361823909 4.21328214428457e-05
907.864615573909 0.000602604187978554
907.865825723909 5.05662647538755e-05
907.867079473909 0.00072322341271289
908.848134763909 5.06531901179554e-05
908.848607233909 0.000565349155475775
908.849860983909 0.0121288495676222
908.850487613909 6.25557203649207e-05
908.851114733909 0.0289121216133353
908.852025103909 5.94629938033427e-05
908.853200893909 0.000191724581311465
908.854454643909 0.0010283019717192
908.855553743909 5.17947912521078e-05
908.856807493909 0.000555595798984196
908.857056873909 0.000207733325385336
908.858310623909 0.0011141638000946
908.859520773909 0.0008159364231257
908.860774523909 0.00437622044579996
908.861636563909 5.36099978395323e-05
908.863696429909 2.83264016569469e-05
908.867970413909 7.49524364002437e-05
908.870434313909 4.10664866159371e-05
909.846895943909 0.000354482415401218
909.848149693909 0.000844996769621747
909.849248793909 9.57641559713298e-05
909.850502543909 0.000456555241814959
909.851962073909 0.000146751908547639
909.853215823909 0.00314837619424378
909.854469573909 0.00750493564167038
909.855331613909 4.4053474796024e-05
909.855345583909 3.25629791026884e-05
909.857809483909 0.000127901099383451
909.860162333909 6.91054918275602e-05
909.860411713909 5.39228929131246e-05
909.861665463909 0.000289211830450108
909.862875613909 6.47162754822567e-05
909.864129363909 0.000347101416133061
910.845657123909 0.000271331775252101
910.846910873909 0.00258714637028477
910.848164623909 0.00231266442683226
910.849074993909 2.85384695708757e-05
910.850250783909 9.20156517487442e-05
910.851504533909 0.000219342131243167
910.853857383909 0.000118511458706238
910.854106763909 9.96988346226347e-05
910.855360513909 0.000237656903504866
910.856570663909 0.000391597787022841
910.857824413909 0.000933470464679612
910.865020303909 3.59724206377093e-05
911.843945833909 7.56129333801963e-05
911.845199583909 6.75908186893847e-05
911.847552433909 3.65195982761174e-05
911.849011963909 7.04316181994739e-05
911.850265713909 0.000671564932668683
911.851519463909 0.000600315601749241
911.858715353909 6.16903798848172e-05
911.859925503909 3.1059711939478e-05
911.861179253909 7.4038528045278e-05
912.842707013909 5.78764715954851e-05
912.843960763909 0.000206944390231332
912.853620553909 8.35298341907222e-05
912.854874303909 7.46677800416902e-05
913.847315603909 5.37181031147336e-05

NAME: Hydroxy-tebuconazole (2M-H)
msLevel: MS1
PRECURSORTYPE: [2M-H]-
FORMULA: C16H22Cl1N3O2
charge: -1
ionization_mode: negative
precursor_mz: 645.272833248
retention_time: 696.6
Num Peaks: 50
645.272832915909 0.392192908796832
646.269867875909 0.00859678542707738
646.276187755909 0.135739262076251
646.277049795909 0.000597585353780873
646.279109661909 0.00193961698995418
647.266902835909 7.851654761974e-05
647.269882805909 0.250970330233242
647.273222715909 0.00297537585184605
647.276144621909 4.25159932761244e-05
647.277078695909 0.00322381572434418
647.279542595909 0.022755844147727
647.280404635909 0.000206826266182726
647.282464501909 0.00067130785136997
648.266917765909 0.00550121644013611
648.273237645909 0.086861660842881
648.274099685909 0.000382404144024508
648.274113655909 7.06653573203229e-05
648.276159551909 0.00124119101997068
648.276577555909 0.000498803280126015
648.280433535909 0.00111577327809102
648.282897435909 0.00246121027373576
648.285819341909 0.00011254059147853
649.263952725909 5.02439576109424e-05
649.266932695909 0.0401499525135546
649.270272605909 0.00190398919347276
649.274128585909 0.00206296972434274
649.276592485909 0.0145618179023469
649.277454525909 0.000132351338233085
649.279514391909 0.000429580314604226
649.279932395909 5.39492074936659e-05
649.283788375909 0.000187052459487917
649.286252275909 0.000192993416542051
650.263967655909 0.000880078448448384
650.270287535909 0.0138960312752867
650.271149575909 6.11765869268352e-05
650.271163545909 4.5219859066648e-05
650.273209441909 0.000198564350079787
650.273627445909 0.000319191961727946
650.277483425909 0.000714000640467961
650.279947325909 0.00157496665880028
650.282869231909 7.2016471421319e-05
651.267322495909 0.000304598059990627
651.271178475909 0.000330031587368453
651.273642375909 0.00232958332862255
651.276564281909 6.872377789075e-05
651.280838265909 0.000119697772386143
651.283302165909 0.000123499483024797
652.270677335909 5.10639727579555e-05
652.274533315909 0.000114225023263882
652.276997215909 0.000251961403176603

NAME: Fluopyram (2M-H)
msLevel: MS1
PRECURSORTYPE: [2M-H]-
FORMULA: C16H11Cl1F6N2O1
charge: -1
ionization_mode: negative
precursor_mz: 791.085543944
retention_time: 725.4
Num Peaks: 40
791.085543351909 0.397996485494464
792.082578311909 0.00581599906539745
792.088898191909 0.137747899154255
792.089760231909 0.000303214139334376
792.091820097909 0.000961272058755889
793.082593241909 0.254684129049256
793.085933151909 0.00201293650054795
793.089789131909 0.00163576048851439
793.092253031909 0.0230925796772801
793.093115071909 0.000104943415857768
793.095174937909 0.000332699436892769
794.079628201909 0.00372174808197556
794.085948081909 0.088147018888573
794.086810121909 0.00019403143446318
794.088869987909 0.000615132911938826
794.089287991909 0.000337456301036973
794.093143971909 0.000566142111864276
794.095607871909 0.00249763067367732
794.098529777909 5.57749940449467e-05
795.079643131909 0.0407440818911957
795.082983041909 0.00128810931291664
795.086839021909 0.00104674852802505
795.089302921909 0.0147773001947537
795.090164961909 6.71549208128908e-05
795.092224827909 0.000212899534062321
795.096498811909 9.49102084834633e-05
795.098962711909 0.000195849286880136
796.076678091909 0.000595401092311824
796.082997971909 0.0141016614167041
796.085919877909 9.84082747188302e-05
796.086337881909 0.000215943525267588
796.090193861909 0.000362283125437964
796.092657761909 0.00159827263806595
797.080032931909 0.000206070286068501
797.083888911909 0.000167457657862508
797.086352811909 0.00236405594456725
797.093548701909 6.07345156715721e-05
797.096012601909 0.000125326998784965
798.087243751909 5.79576488953025e-05
798.089707651909 0.000255689867652578

NAME: Mecoprop (2M-H)
msLevel: MS1
PRECURSORTYPE: [2M-H]-
FORMULA: C10H11Cl1O3
charge: -1
ionization_mode: negative
precursor_mz: 427.072067784
retention_time: 544.8
Num Peaks: 30
427.072067391909 0.455042030485934
428.075422231909 0.0984322192701808
428.076284271909 0.00104002308560595
428.078344137909 0.00109905289470642
429.069117281909 0.291188458790365
429.076313171909 0.00561065085655843
429.078777071909 0.0101138533193307
429.079639111909 0.000224972142241659
429.081698977909 0.00023774114976971
430.072472121909 0.062988305045121
430.073334161909 0.000665526916449004
430.075394027909 0.000703301007594606
430.079668011909 0.00121366550419843
430.082131911909 0.000656332136966574
431.066167171909 0.0465840037029993
431.073363061909 0.00359034257558015
431.075826961909 0.00647201173338375
431.076689001909 0.000143963165996247
431.078748867909 0.000152134252122961
431.083022851909 0.000124703425150884
432.069522011909 0.0100767985367855
432.070384051909 0.000106470251153141
432.072443917909 0.00011251330797316
432.076717901909 0.000776643395506068
432.079181801909 0.000419997122493922
433.070412951909 0.000574378986484048
433.072876851909 0.0010353851928275
433.080072741909 7.97996574883168e-05
434.073767791909 0.000124246541097328
434.076231691909 6.71906695436422e-05

NAME: p-Toluenesulfonamide (2M-H)
msLevel: MS1
PRECURSORTYPE: [2M-H]-
FORMULA: C7H9N1O2S1
charge: -1
ionization_mode: negative
precursor_mz: 341.063523056
retention_time: 362.4
Num Peaks: 30
341.063522083909 0.761561352037426
342.060557043909 0.00556442113576665
342.062909893909 0.0120259188130976
342.066876923909 0.115315769266356
342.067738963909 0.00116039301011146
342.069798829909 0.00148902368095648
343.059318223909 0.0681468732742196
343.059944853909 8.78685304100429e-05
343.063911883909 0.00084256573955104
343.066264733909 0.00182096698494088
343.067767863909 0.00626001492296971
343.070231763909 0.00810695618364004
343.071093803909 0.000175706937142117
343.073153669909 0.00022546825776537
344.056353183909 0.000497921672323576
344.058706033909 0.000538058268824768
344.062673063909 0.010318812914665
344.063535103909 0.000103835567806584
344.065594969909 0.000133242460134015
344.067155673909 9.88527464412524e-05
344.069619573909 0.000128018046904517
344.071122703909 0.000947892687214053
344.073586603909 0.000350730541453344
345.055114363909 0.00152449842833684
345.058532233909 0.000160345584174634
345.062060873909 8.1472888577732e-05
345.063564003909 0.000560165563167097
345.066027903909 0.000725435599125595
346.058469203909 0.000230839850970241
346.066918843909 8.48203794222492e-05

NAME: Triclosan (2M-H)
msLevel: MS1
PRECURSORTYPE: [2M-H]-
FORMULA: C12H7Cl3O2
charge: -1
ionization_mode: negative
precursor_mz: 574.895049008
retention_time: 811.8
Num Peaks: 58
574.895048735909 0.144422954963158
575.898403575909 0.0374889465627606
575.899265615909 0.000220057631588761
575.901325481909 0.000215937150442223
576.892098625909 0.277255472146802
576.899294515909 0.00118715301251832
576.901758415909 0.00466290799004113
576.902620455909 5.71220052481491e-05
576.904680321909 5.60524211397582e-05
577.895453465909 0.0719692765059121
577.896315505909 0.0004224548830289
577.898375371909 0.000414544603488871
577.902649355909 0.00030815818620712
577.905113255909 0.000369840136411497
578.889148515909 0.221775100476455
578.896344405909 0.00227903292160328
578.898808305909 0.00895160161129333
578.899670345909 0.000109659773538685
578.901730211909 0.000107606443117297
578.906004195909 3.83289849517701e-05
579.892503355909 0.0575678214923215
579.893365395909 0.000337919296614986
579.895425261909 0.000331591908281753
579.899699245909 0.000591585620406066
579.902163145909 0.00070999933262524
580.886198405909 0.0946115528959744
580.893394295909 0.00182298567910716
580.895858195909 0.00716033603015279
580.896720235909 8.77162391294131e-05
580.898780101909 8.60737916170566e-05
580.903054085909 7.35819373202936e-05
580.905517985909 4.0315589315903e-05
581.889553245909 0.0245590283874318
581.890415285909 0.000144159868883268
581.892475151909 0.000141460539541529
581.896749135909 0.00047320602688236
581.899213035909 0.00056792449256982
582.883248295909 0.0227037754969485
582.890444185909 0.000777704555817627
582.892908085909 0.00305467344897754
582.893770125909 3.74206553413758e-05
582.895829991909 3.67199702357876e-05
582.900103975909 5.8857779852294e-05
582.902567875909 3.22482142627207e-05
583.886603135909 0.00589338880786047
583.887465175909 3.45938016934768e-05
583.889525041909 3.39460481634768e-05
583.893799025909 0.000201874588025843
583.896262925909 0.000242282465679205
584.880298185909 0.00290569967289351
584.887494075909 0.000186624456504283
584.889957975909 0.000733024858796352
585.883653025909 0.000754254195895131
585.890848915909 4.84435059438996e-05
585.893312815909 5.81401165001049e-05
586.877348075909 0.000154950193749865
586.887007865909 9.38147971342322e-05
587.880702915909 4.02215806681142e-05

NAME: Triclosan glucuronide (2M-H)
msLevel: MS1
PRECURSORTYPE: [2M-H]-
FORMULA: C18H15Cl3O8
charge: -1
ionization_mode: negative
precursor_mz: 926.95922496
retention_time: 665.4
Num Peaks: 87
926.959224687909 0.12305343712151
927.962579527909 0.0479128514901504
927.963441567909 0.000749987367000595
927.965501433909 0.000410430412297651
928.956274577909 0.236231413608137
928.963470467909 0.00404598447987163
928.965934367909 0.00906871671033121
928.966796407909 0.000292019745040563
928.968856273909 0.000159807737609477
929.959629417909 0.0919805322165717
929.960491457909 0.00143978567392511
929.962551323909 0.000787922375456315
929.966825307909 0.00157536967719251
929.969289207909 0.00111162746023063
929.970151247909 5.52721088232543e-05
929.972211113909 3.02476487085561e-05
930.953324467909 0.18896018564748
930.960520357909 0.00776726481985916
930.962984257909 0.0174096377818185
930.963846297909 0.000560603903361926
930.965906163909 0.000306790355833188
930.967716247909 6.23585426366333e-05
930.970180147909 0.000298178481809661
930.972644047909 9.91902497239048e-05
931.956679307909 0.073574712939866
931.957541347909 0.00115167650263809
931.959601213909 0.000630254698424666
931.963875197909 0.0030243105312946
931.964737237909 4.43812559250952e-05
931.966339097909 0.00213404300179439
931.966797103909 2.59068074570879e-05
931.967201137909 0.000106108441225635
931.969261003909 5.80678198016419e-05
931.971071087909 2.4280309939989e-05
931.973534987909 3.65501976759172e-05
932.950374357909 0.08061237064581
932.957570247909 0.00621299165896865
932.960034147909 0.0139258718265338
932.960896187909 0.000448423924811678
932.962956053909 0.000245399888641647
932.964766137909 0.000119712598219007
932.967230037909 0.000572427117138293
932.969693937909 0.000190420141497422
933.953729197909 0.0313877339257718
933.954591237909 0.000491317114113821
933.956651103909 0.000268873176519076
933.960925087909 0.002419129068063
933.961787127909 3.55003182294188e-05
933.963388987909 0.00170700905370565
933.964251027909 8.48755482876646e-05
933.966310893909 4.6448124075759e-05
933.968120977909 4.66120416799367e-05
933.970584877909 7.01671165520776e-05
934.947424247909 0.0193444152368113
934.954620137909 0.00265052653666667
934.957084037909 0.00594092103265012
934.957946077909 0.000191302286825679
934.960005943909 0.00010469013200763
934.961816027909 9.57574373293533e-05
934.964279927909 0.000457881247341349
934.966743827909 0.000152316005474443
935.950779087909 0.00753206181059306
935.951641127909 0.000117900542959204
935.953700993909 6.45210447349102e-05
935.957974977909 0.00103202549471748
935.960438877909 0.000728227727240848
935.961300917909 3.62087872314852e-05
935.965170867909 3.72847112698543e-05
935.967634767909 5.61262838312553e-05
936.944474137909 0.00247575831753066
936.951670027909 0.00063604240280623
936.954133927909 0.00142563284548019
936.954995967909 4.59064885756447e-05
936.957055833909 2.51223152045764e-05
936.958865917909 4.08511137075594e-05
936.961329817909 0.000195336878485644
936.963793717909 6.49795841728352e-05
937.947828977909 0.000963976654111805
937.955024867909 0.000247653425210715
937.957488767909 0.000174751585021629
937.964684657909 2.39440535035134e-05
938.941524027909 0.000132023014820801
938.948719917909 8.1402681330639e-05
938.951183817909 0.000182456917499682
938.958379707909 4.68746627622625e-05
939.944878867909 5.1405302040809e-05
939.952074757909 3.16954542085941e-05

NAME: Triclosan sulfate (2M-H)
msLevel: MS1
PRECURSORTYPE: [2M-H]-
FORMULA: C12H7Cl3O5S1
charge: -1
ionization_mode: negative
precursor_mz: 734.808678728
retention_time: 695.4
Num Peaks: 135
734.808677915909 0.128425800827153
735.808065725909 0.00202798927508927
735.812032755909 0.0333364456205528
735.812894795909 0.000489206815705346
735.814954661909 0.000192018654381848
736.804474055909 0.0114919392255059
736.805727805909 0.246544990394683
736.811420565909 0.000526420343518573
736.812923695909 0.00263914203209463
736.815387595909 0.00414641628788944
736.816249635909 0.000126987071942922
736.818309501909 4.9843718230323e-05
737.803861865909 9.0735387084213e-05
737.805115615909 0.00389322545101615
737.807828895909 0.00298304861327192
737.808690935909 4.3775744115122e-05
737.809082645909 0.063997527073036
737.809944685909 0.000939153105546271
737.812004551909 0.000368627152762618
737.812311505909 4.16750505120744e-05
737.814775405909 6.5476623137532e-05
737.816278535909 0.000685061835481554
737.818742435909 0.000328874421028059
738.800270195909 0.000257083596738604
738.801523945909 0.0220616108890915
738.802777695909 0.197209957997859
738.803688065909 2.70398570011903e-05
738.808470455909 0.00101059364785297
738.808719835909 0.000236158619568422
738.809973585909 0.00506648385886804
738.811183735909 0.000371034197779348
738.812437485909 0.00796006843863042
738.813299525909 0.00024378299555674
738.815359391909 9.56873070144955e-05
738.819633375909 8.52085907773225e-05
739.800911755909 0.000174188947961034
739.802165505909 0.00311416924936086
739.803625035909 6.67331119402339e-05
739.804878785909 0.00572669733783352
739.805740825909 8.40383345314592e-05
739.806132535909 0.0511912637358234
739.806994575909 0.000751223313042556
739.807800691909 3.29859016578825e-05
739.809054441909 0.000294862796428388
739.809361395909 8.00055351963582e-05
739.811825295909 0.000125698522559697
739.812074675909 6.13014591177304e-05
739.813328425909 0.00131514510760873
739.814538575909 2.94287038502842e-05
739.815792325909 0.00063135554110772
739.816654365909 3.03219423867955e-05
740.797320085909 0.000493535352556263
740.798573835909 0.0176469590797115
740.799827585909 0.0841318089029935
740.800737955909 5.19096726802153e-05
740.804266595909 4.52155279858421e-05
740.805520345909 0.000808368203008054
740.805769725909 0.00045336469944603
740.807023475909 0.00405265208351905
740.808233625909 0.000712291627838284
740.809487375909 0.00636721419457502
740.810349415909 0.000195000653784826
740.812409281909 7.65397413553118e-05
740.814219365909 4.68521643574463e-05
740.816683265909 0.000163578899718239
740.819147165909 3.58499924408432e-05
741.797961645909 0.000139332764604523
741.799215395909 0.00132853682866081
741.800674925909 0.000128110662626553
741.801928675909 0.00458075315037898
741.802790715909 6.72217934610141e-05
741.803182425909 0.0218387228609004
741.804044465909 0.000320479639355008
741.804850581909 2.63852381265533e-05
741.806104331909 0.000125791520334814
741.806411285909 6.39959798429159e-05
741.808875185909 0.000100545544708522
741.809124565909 0.000117683265761387
741.810378315909 0.00105197721120761
741.811588465909 5.64956532205034e-05
741.812842215909 0.000505017763874443
742.794369975909 0.000394776166379482
742.795623725909 0.00752837536241125
742.796877475909 0.0201889689262991
742.797787845909 4.15222566581448e-05
742.801316485909 3.61676477817058e-05
742.802570235909 0.000344858240776403
742.802819615909 0.000362643885776523
742.804073365909 0.00172890331757307
742.805283515909 0.000569758086681626
742.806537265909 0.00271631946632345
742.807399305909 8.3189296862798e-05
742.809459171909 3.26526457313051e-05
742.811269255909 3.74767840557187e-05
742.813733155909 0.000130845846395529
742.816197055909 2.86762083146132e-05
743.795011535909 5.94407992610637e-05
743.796265285909 0.000318806752178637
743.797724815909 0.000102475002048166
743.798978565909 0.00195419669773295
743.799840605909 2.86775127331042e-05
743.800232315909 0.00524060165801437
743.801094355909 7.69049609751062e-05
743.803154221909 3.01859799325094e-05
743.803461175909 2.73013472613918e-05
743.805925075909 4.28937698650929e-05
743.806174455909 9.4134185653908e-05
743.807428205909 0.000448784364654568
743.808638355909 4.51905568263266e-05
743.809892105909 0.000215445804229435
744.791419865909 0.000168415597906347
744.792673615909 0.00180657159567894
744.793927365909 0.00258384692066257
744.799620125909 8.27550530268613e-05
744.799869505909 0.00015470763448122
744.801123255909 0.000414882026313073
744.802333405909 0.000243064695902193
744.803587155909 0.000651830621670543
744.810783045909 5.58201921264981e-05
745.793315175909 4.0801877892345e-05
745.794774705909 4.37168963331143e-05
745.796028455909 0.000468945300485547
745.797282205909 0.000670708469853582
745.803224345909 4.0158617744645e-05
745.804478095909 0.000107694030483369
745.806941995909 5.17001679103898e-05
746.788469755909 4.04144082621092e-05
746.789723505909 0.000231210641389955
746.790977255909 0.000137786979401753
746.796919395909 3.71249312944638e-05
746.798173145909 5.30978897456647e-05
746.799383295909 5.83278269733616e-05
746.800637045909 8.34233065960611e-05
747.793078345909 6.00170754158906e-05
747.794332095909 3.57663967556556e-05

NAME: acetamiprid-N-desmethyl (2M-H)
msLevel: MS1
PRECURSORTYPE: [2M-H]-
FORMULA: C9H9N4Cl1
charge: -1
ionization_mode: negative
precursor_mz: 415.095871936
retention_time: 402.6
Num Peaks: 27
415.095871623909 0.458421811110701
416.092906583909 0.0133980119028701
416.099226463909 0.08924698354384
416.102148369909 0.000896317717258905
417.089941543909 0.000171314255532703
417.092921513909 0.293351232875485
417.096261423909 0.00260836661527623
417.102581303909 0.00820480456212701
417.105503209909 0.000174497920089018
418.089956473909 0.00857359579000977
418.096276353909 0.0571105301241468
418.099198259909 0.000573567620547937
418.099616263909 0.000239796769088621
418.105936143909 0.000473284996474323
419.086991433909 0.000109626651375732
419.089971403909 0.0469300018802915
419.093311313909 0.00166913428601626
419.099631193909 0.00525038180005171
419.102553099909 0.000111663927744398
420.087006363909 0.00137159425785267
420.093326243909 0.00913647868406362
420.096248149909 9.17587059271514e-05
420.096666153909 0.000153449674833901
420.102986033909 0.000302862415906484
421.090361203909 0.000267026234774512
421.096681083909 0.000839950203492961
422.100035923909 4.84515902954934e-05

