NAME: 2,4-Dichlorophenoxyacetic acid ou 2,4-D (M-H)
msLevel: MS1
PRECURSORTYPE: [M-H]-
FORMULA: C8H6Cl2O3
charge: -1
ionization_mode: negative
precursor_mz: 218.962123412
Num Peaks: 11
218.962123019909 100
219.965477859909 8.65258263418579
219.966339899909 0.11427769479836
220.959172909909 63.9915522703273
220.966368799909 0.616498090359574
220.968832699909 0.327543939806184
221.962527749909 5.53692193908827
222.956222799909 10.2372969049151
222.963418689909 0.394506697738017
222.965882589909 0.209600451449364
223.959577639909 0.885790574204722

NAME: 2-diethylamino-6-methyl pyrimidin-4-ol/one (M-H)
msLevel: MS1
PRECURSORTYPE: [M-H]-
FORMULA: C9H15N3O1
charge: -1
ionization_mode: negative
precursor_mz: 180.1142361
Num Peaks: 7
180.114235677909 100
181.111270637909 1.09598940142117
181.117590517909 9.73415546345901
181.120512423909 0.16101851712947
182.114625477909 0.106685312197371
182.118481457909 0.205499363453191
182.120945357909 0.421127922607951

NAME: 3,5,6-Trichloro-2-pyridinol (M-H)
msLevel: MS1
PRECURSORTYPE: [M-H]-
FORMULA: C5H2Cl3N1O1
charge: -1
ionization_mode: negative
precursor_mz: 195.912920724
Num Peaks: 15
195.912920371909 100
196.909955331909 0.365329800473724
196.916275211909 5.40786414636612
197.909970261909 95.987328405491
197.917166151909 0.205499363453191
197.919630051909 0.116979978502209
198.907005221909 0.350670315343839
198.913325101909 5.19086431789525
199.907020151909 30.7118907147453
199.914216041909 0.197253348869008
199.916679941909 0.112285956133588
200.904055111909 0.112199689069887
200.910374991909 1.66085732663385
201.904070041909 3.27550259998867
202.907424881909 0.177134730718077

NAME: 3-phenoxybenzoic acid (M-H)
msLevel: MS1
PRECURSORTYPE: [M-H]-
FORMULA: C13H10O3
charge: -1
ionization_mode: negative
precursor_mz: 213.05571818
Num Peaks: 6
213.055717727909 100
214.059072567909 14.0604467805519
214.059934607909 0.11427769479836
214.061994473909 0.103511903868945
215.059963507909 0.616498090359574
215.062427407909 0.912443832317227

NAME: 4-Fluoro-3-phenoxybenzoic acid (M-H)
msLevel: MS1
PRECURSORTYPE: [M-H]-
FORMULA: C13H9F1O3
charge: -1
ionization_mode: negative
precursor_mz: 231.046296368
Num Peaks: 5
231.046295895909 100
232.049650735909 14.0604467805519
232.050512775909 0.11427769479836
233.050541675909 0.616498090359574
233.053005575909 0.912443832317227

