NAME: 2,4-Dichlorophenoxyacetic acid ou 2,4-D (M-H)
msLevel: MS1
PRECURSORTYPE: [M-H]-
FORMULA: C8H6Cl2O3
charge: -1
ionization_mode: negative
precursor_mz: 218.962123412
retention_time: 484.2
Num Peaks: 11
218.962123019909 100
219.965477859909 8.65258263418579
219.966339899909 0.11427769479836
220.959172909909 63.9915522703273
220.966368799909 0.616498090359574
220.968832699909 0.327543939806184
221.962527749909 5.53692193908827
222.956222799909 10.2372969049151
222.963418689909 0.394506697738017
222.965882589909 0.209600451449364
223.959577639909 0.885790574204722

NAME: 2-diethylamino-6-methyl pyrimidin-4-ol/one (M-H)
msLevel: MS1
PRECURSORTYPE: [M-H]-
FORMULA: C9H15N3O1
charge: -1
ionization_mode: negative
precursor_mz: 180.1142361
retention_time: 451.8
Num Peaks: 7
180.114235677909 100
181.111270637909 1.09598940142117
181.117590517909 9.73415546345901
181.120512423909 0.16101851712947
182.114625477909 0.106685312197371
182.118481457909 0.205499363453191
182.120945357909 0.421127922607951

NAME: 3,5,6-Trichloro-2-pyridinol (M-H)
msLevel: MS1
PRECURSORTYPE: [M-H]-
FORMULA: C5H2Cl3N1O1
charge: -1
ionization_mode: negative
precursor_mz: 195.912920724
retention_time: 499.2
Num Peaks: 15
195.912920371909 100
196.909955331909 0.365329800473724
196.916275211909 5.40786414636612
197.909970261909 95.987328405491
197.917166151909 0.205499363453191
197.919630051909 0.116979978502209
198.907005221909 0.350670315343839
198.913325101909 5.19086431789525
199.907020151909 30.7118907147453
199.914216041909 0.197253348869008
199.916679941909 0.112285956133588
200.904055111909 0.112199689069887
200.910374991909 1.66085732663385
201.904070041909 3.27550259998867
202.907424881909 0.177134730718077

NAME: 3-phenoxybenzoic acid (M-H)
msLevel: MS1
PRECURSORTYPE: [M-H]-
FORMULA: C13H10O3
charge: -1
ionization_mode: negative
precursor_mz: 213.05571818
retention_time: 517.8
Num Peaks: 6
213.055717727909 100
214.059072567909 14.0604467805519
214.059934607909 0.11427769479836
214.061994473909 0.103511903868945
215.059963507909 0.616498090359574
215.062427407909 0.912443832317227

NAME: 4-Fluoro-3-phenoxybenzoic acid (M-H)
msLevel: MS1
PRECURSORTYPE: [M-H]-
FORMULA: C13H9F1O3
charge: -1
ionization_mode: negative
precursor_mz: 231.046296368
retention_time: 532.2
Num Peaks: 5
231.046295895909 100
232.049650735909 14.0604467805519
232.050512775909 0.11427769479836
233.050541675909 0.616498090359574
233.053005575909 0.912443832317227

NAME: 4-nitrophenol (M-H)
msLevel: MS1
PRECURSORTYPE: [M-H]-
FORMULA: C6H5N1O3
charge: -1
ionization_mode: negative
precursor_mz: 138.01966702
retention_time: 165
Num Peaks: 6
138.019666577909 100
139.016701537909 0.365329800473724
139.023021417909 6.48943697563934
139.023883457909 0.11427769479836
140.023912357909 0.616498090359574
140.026376257909 0.175469967753313

NAME: 6-Chloronicotinic acid (M-H)
msLevel: MS1
PRECURSORTYPE: [M-H]-
FORMULA: C6H4Cl1N1O2
charge: -1
ionization_mode: negative
precursor_mz: 155.985780048
retention_time: 172.2
Num Peaks: 9
155.985779635909 100
156.982814595909 0.365329800473724
156.989134475909 6.48943697563934
157.982829525909 31.9957761351637
157.990025415909 0.410998726906383
157.992489315909 0.175469967753313
158.979864485909 0.116890105114613
158.986184365909 2.0763457271581
159.987075305909 0.131502232579339

NAME: Acetochlor mercapturate (M-H)
msLevel: MS1
PRECURSORTYPE: [M-H]-
FORMULA: C19H28N2O5S1
charge: -1
ionization_mode: negative
precursor_mz: 395.164616996
retention_time: 607.2
Num Peaks: 14
395.164616293909 100
396.161651253909 0.730659600947449
396.164004103909 0.789556795452153
396.167971133909 20.5498837561912
396.168833173909 0.190462824663933
396.170893039909 0.310535711606835
397.160412433909 4.47415517422887
397.165006093909 0.150149698648152
397.167358943909 0.162253003654526
397.168862073909 1.02749681726596
397.171325973909 2.00035763238777
398.163767273909 0.919433687375648
398.172216913909 0.211149401546719
398.174680813909 0.122600172961129

NAME: Alachlor mercapturate (M-H)
msLevel: MS1
PRECURSORTYPE: [M-H]-
FORMULA: C19H28N2O5S1
charge: -1
ionization_mode: negative
precursor_mz: 395.164616996
retention_time: 607.2
Num Peaks: 14
395.164616293909 100
396.161651253909 0.730659600947449
396.164004103909 0.789556795452153
396.167971133909 20.5498837561912
396.168833173909 0.190462824663933
396.170893039909 0.310535711606835
397.160412433909 4.47415517422887
397.165006093909 0.150149698648152
397.167358943909 0.162253003654526
397.168862073909 1.02749681726596
397.171325973909 2.00035763238777
398.163767273909 0.919433687375648
398.172216913909 0.211149401546719
398.174680813909 0.122600172961129

NAME: Bentazone (M-H)
msLevel: MS1
PRECURSORTYPE: [M-H]-
FORMULA: C10H12N2O3S1
charge: -1
ionization_mode: negative
precursor_mz: 239.049587244
retention_time: 747.6
Num Peaks: 10
239.049586541909 100
240.046621501909 0.730659600947449
240.048974351909 0.789556795452153
240.052941381909 10.8157282927322
240.053803421909 0.11427769479836
240.055863287909 0.126514549173155
241.045382681909 4.47415517422887
241.053832321909 0.616498090359574
241.056296221909 0.526409903259938
242.048737521909 0.483912467039815

NAME: Diethylthiophosphate (M-H)
msLevel: MS1
PRECURSORTYPE: [M-H]-
FORMULA: C4H11O3P1S1
charge: -1
ionization_mode: negative
precursor_mz: 169.009375842
retention_time: 177
Num Peaks: 8
169.009374979909 100
170.008762789909 0.789556795452153
170.012729819909 4.32629131709289
170.013591859909 0.11427769479836
170.015651725909 0.11501322652105
171.005171119909 4.47415517422887
171.013620759909 0.616498090359574
172.008525959909 0.193564986815926

NAME: Fenhexamid (M-H)
msLevel: MS1
PRECURSORTYPE: [M-H]-
FORMULA: C14H17Cl2N1O2
charge: -1
ionization_mode: negative
precursor_mz: 300.056358144
retention_time: 689.4
Num Peaks: 15
300.056357761909 100
301.053392721909 0.365329800473724
301.059712601909 15.1420196098251
301.062634507909 0.18402116243368
302.053407651909 63.9915522703273
302.060603541909 0.410998726906383
302.063067441909 1.0645178043701
303.050442611909 0.233780210229226
303.056762491909 9.68961339340446
303.059684397909 0.117757998347212
304.050457541909 10.2372969049151
304.057653431909 0.263004465158678
304.060117331909 0.681201467210432
305.053812381909 1.55013350485826
306.057167221909 0.10897784823905

NAME: Fenvalerate free acid (M-H)
msLevel: MS1
PRECURSORTYPE: [M-H]-
FORMULA: C11H13Cl1O2
charge: -1
ionization_mode: negative
precursor_mz: 211.053131336
retention_time: 585
Num Peaks: 9
211.053130913909 100
212.056485753909 11.8973011220055
212.059407659909 0.13801587182526
213.050180803909 31.9957761351637
213.057376693909 0.410998726906383
213.059840593909 0.643389881762147
214.053535643909 3.80663383312318
215.054426583909 0.131502232579339
215.056890483909 0.205857586244911

NAME: Fipronil (M-H)
msLevel: MS1
PRECURSORTYPE: [M-H]-
FORMULA: C12H4Cl2F6N4O1S1
charge: -1
ionization_mode: negative
precursor_mz: 434.931430428
retention_time: 750
Num Peaks: 23
434.931429685909 100
435.928464645909 1.4613192018949
435.930817495909 0.789556795452153
435.934784525909 12.9788739512787
436.927225825909 4.47415517422887
436.928479575909 63.9915522703273
436.931819485909 0.18966277723977
436.934172335909 0.10247558125549
436.935675465909 0.205499363453191
436.938139365909 0.772067858114576
437.925514535909 0.935120840916904
437.927867385909 0.505249649465686
437.930580665909 0.580694960447778
437.931834415909 8.3053829086324
438.924275715909 2.86308134697222
438.925529465909 10.2372969049151
438.928869375909 0.121368155234742
438.932725355909 0.131502232579339
438.935189255909 0.494058206987786
439.922564425909 0.149599585426516
439.927630555909 0.371595719146096
439.928884305909 1.32868586130708
440.921325605909 0.45803254917243

NAME: Fipronil sulfone (M-H)
msLevel: MS1
PRECURSORTYPE: [M-H]-
FORMULA: C12H4Cl2F6N4O2S1
charge: -1
ionization_mode: negative
precursor_mz: 450.926345048
retention_time: 771
Num Peaks: 23
450.926344305909 100
451.923379265909 1.4613192018949
451.925732115909 0.789556795452153
451.929699145909 12.9788739512787
452.922140445909 4.47415517422887
452.923394195909 63.9915522703273
452.926734105909 0.18966277723977
452.929086955909 0.10247558125549
452.930590085909 0.410998726906383
452.933053985909 0.772067858114576
453.920429155909 0.935120840916904
453.922782005909 0.505249649465686
453.925495285909 0.580694960447778
453.926749035909 8.3053829086324
454.919190335909 2.86308134697222
454.920444085909 10.2372969049151
454.923783995909 0.121368155234742
454.927639975909 0.263004465158678
454.930103875909 0.494058206987786
455.917479045909 0.149599585426516
455.922545175909 0.371595719146096
455.923798925909 1.32868586130708
456.916240225909 0.45803254917243

NAME: Hydroxy-tebuconazole (M-H)
msLevel: MS1
PRECURSORTYPE: [M-H]-
FORMULA: C16H22Cl1N3O2
charge: -1
ionization_mode: negative
precursor_mz: 322.132778624
retention_time: 696.6
Num Peaks: 12
322.132778231909 100
323.129813191909 1.09598940142117
323.136133071909 17.3051652683716
323.139054977909 0.241527775694205
324.129828121909 31.9957761351637
324.133168031909 0.18966277723977
324.137024011909 0.410998726906383
324.139487911909 1.4037597420265
325.126863081909 0.350670315343839
325.133182961909 5.53692193908827
326.134073901909 0.131502232579339
326.136537801909 0.449143824534351

NAME: Fluopyram (M-H)
msLevel: MS1
PRECURSORTYPE: [M-H]-
FORMULA: C16H11Cl1F6N2O1
charge: -1
ionization_mode: negative
precursor_mz: 395.039133972
retention_time: 725.4
Num Peaks: 11
395.039133449909 100
396.036168409909 0.730659600947449
396.042488289909 17.3051652683716
396.045410195909 0.11501322652105
397.036183339909 31.9957761351637
397.039523249909 0.12644185149318
397.043379229909 0.205499363453191
397.045843129909 1.4037597420265
398.033218299909 0.233780210229226
398.039538179909 5.53692193908827
399.042893019909 0.449143824534351

NAME: Mecoprop (M-H)
msLevel: MS1
PRECURSORTYPE: [M-H]-
FORMULA: C10H11Cl1O3
charge: -1
ionization_mode: negative
precursor_mz: 213.032395892
retention_time: 544.8
Num Peaks: 10
213.032395469909 100
214.035750309909 10.8157282927322
214.036612349909 0.11427769479836
214.038672215909 0.11501322652105
215.029445359909 31.9957761351637
215.036641249909 0.616498090359574
215.039105149909 0.526409903259938
216.032800199909 3.46057621193017
217.033691139909 0.197253348869008
217.036155039909 0.168428934200382

NAME: p-Toluenesulfonamide (M-H)
msLevel: MS1
PRECURSORTYPE: [M-H]-
FORMULA: C7H9N1O2S1
charge: -1
ionization_mode: negative
precursor_mz: 170.028123528
retention_time: 362.4
Num Peaks: 8
170.028122815909 100
171.025157775909 0.365329800473724
171.027510625909 0.789556795452153
171.031477655909 7.57100980491256
172.023918955909 4.47415517422887
172.032368595909 0.410998726906383
172.034832495909 0.245657954854638
173.027273795909 0.33873872692787

NAME: Triclosan (M-H)
msLevel: MS1
PRECURSORTYPE: [M-H]-
FORMULA: C12H7Cl3O2
charge: -1
ionization_mode: negative
precursor_mz: 286.943886504
retention_time: 811.8
Num Peaks: 14
286.943886141909 100
287.947240981909 12.9788739512787
288.940936031909 95.987328405491
288.948131921909 0.410998726906383
288.950595821909 0.772067858114576
289.944290871909 12.4580743629486
290.937985921909 30.7118907147453
290.945181811909 0.394506697738017
290.947645711909 0.741087310481679
291.941340761909 3.98605758392125
292.935035811909 3.27550259998867
292.942231701909 0.126225479846483
292.944695601909 0.237116636827823
293.938390651909 0.425123353723386

NAME: Triclosan glucuronide (M-H)
msLevel: MS1
PRECURSORTYPE: [M-H]-
FORMULA: C18H15Cl3O8
charge: -1
ionization_mode: negative
precursor_mz: 462.97597448
retention_time: 665.4
Num Peaks: 21
462.975974117909 100
463.979328957909 19.468310926918
463.980190997909 0.304740519462293
463.982250863909 0.16101851712947
464.973024007909 95.987328405491
464.980219897909 1.64399490762553
464.982683797909 1.78979367108379
465.976378847909 18.6871115444229
465.977240887909 0.292512283200871
465.979300753909 0.154557372830716
465.983574737909 0.320058040239237
465.986038637909 0.103242250914635
466.970073897909 30.7118907147453
466.977269787909 1.57802679095207
466.979733687909 1.71797512884389
467.973428737909 5.97908637588188
467.980624627909 0.307215162172615
468.967123787909 3.27550259998867
468.974319677909 0.50490191938593
468.976783577909 0.549679476282681
469.970478627909 0.637685030585079

NAME: Triclosan sulfate (M-H)
msLevel: MS1
PRECURSORTYPE: [M-H]-
FORMULA: C12H7Cl3O5S1
charge: -1
ionization_mode: negative
precursor_mz: 366.900701364
retention_time: 695.4
Num Peaks: 29
366.900700731909 100
367.900088541909 0.789556795452153
367.904055571909 12.9788739512787
367.904917611909 0.190462824663933
368.896496871909 4.47415517422887
368.897750621909 95.987328405491
368.903443381909 0.10247558125549
368.904946511909 1.02749681726596
368.907410411909 0.772067858114576
369.897138431909 0.757874474198529
369.899851711909 0.580694960447778
369.901105461909 12.4580743629486
369.901967501909 0.182820177000544
369.908301351909 0.133357516766349
370.893546761909 4.29462202045833
370.894800511909 30.7118907147453
370.901996401909 0.986266744345042
370.904460301909 0.741087310481679
371.894188321909 0.24248782015011
371.896901601909 0.557393578719145
371.898155351909 3.98605758392125
371.905351241909 0.128006317571923
372.890596651909 1.37409764751729
372.891850401909 3.27550259998867
372.899046291909 0.315563699616207
372.901510191909 0.237116636827823
373.893951491909 0.178342401638755
373.895205241909 0.425123353723386
374.887646541909 0.146551069059394

NAME: acetamiprid-N-desmethyl (M-H)
msLevel: MS1
PRECURSORTYPE: [M-H]-
FORMULA: C9H9N4Cl1
charge: -1
ionization_mode: negative
precursor_mz: 207.044297968
retention_time: 402.6
Num Peaks: 9
207.044297585909 100
208.041332545909 1.4613192018949
208.047652425909 9.73415546345901
209.041347475909 31.9957761351637
209.044687385909 0.142247082929828
209.051007265909 0.421127922607951
210.038382435909 0.467560420458452
210.044702315909 3.11451859073715
211.048057155909 0.134743147360305

